CONTCAR-pb-1                            
   1.00000000000000     
    14.5866367957619865    0.0001040003854163    0.0000120474742011
    -0.0000913710117240   14.5889900437899076   -0.0000147361072968
     0.0000106573020758   -0.0000091481500360    9.7545863903998917
   Sn   O    Pb
    54   108     1
Direct
 -0.0008905441007087  0.0001371646410414 -0.0016274191199124
  0.1634714708146179  0.1695482053088518  0.1644236912154238
  0.3356038668309330 -0.0014112296529700  0.0007149754921402
  0.5044352864757039  0.1716787966989618  0.1641308980911212
  0.6667141737136656  0.0005365935855208 -0.0005430175695926
  0.8323553209320130  0.1676878730369414  0.1649235841168712
 -0.0014111400288154  0.3322415977507162 -0.0014712525511563
  0.1622211710148696  0.4949936629168301  0.1641259700920874
  0.3333238822149870  0.3333358689197699 -0.0005529559410952
  0.5031692905111874  0.4971272834913827  0.1644275160573466
  0.6680597284352612  0.3344410535222216 -0.0014630355512662
  0.8342930311497162  0.4989947877350501  0.1649252041491814
 -0.0000588820804573  0.6661437961069374 -0.0005447859932161
  0.1616114700752597  0.8342988304856452  0.1643666200079793
  0.3310429208971347  0.6680965858266916  0.0007203311327152
  0.5050356022746709  0.8323824587902431  0.1643742700270946
  0.6675310377153414  0.6665394482889745 -0.0016213230273968
  0.8333232386705656  0.8333368080261854  0.1656289399993917
 -0.0043745778020667  0.0040995516084407  0.3300656207076832
  0.1630845987559487  0.1694100370245785  0.4999341674051552
  0.3336193903999053  0.0255746902285725  0.3295916842153198
  0.5040677323721877  0.1710542775626923  0.5022996090507638
  0.6694012827722664  0.0035880571683149  0.3324387631057341
  0.8332923348810397  0.1694650478868062  0.4998016820397422
 -0.0027913715735591  0.3332969030204446  0.3325397786733097
  0.1625861382269568  0.4956256736409639  0.5022957581501672
  0.3333243417582222  0.3333337679788099  0.3328985138450781
  0.5035597133809880  0.4972623862559654  0.4999392641892001
  0.6694409738508206  0.3333841196589190  0.3325407386085290
  0.8333580288360289  0.4972177637088920  0.4998023402807467
 -0.0027479398559271  0.6630902098359833  0.3324359903147468
  0.1408277451607401  0.8335961571016842  0.5027412312871306
  0.3330321872751630  0.6411076756589138  0.3295935260230552
  0.5258193152166861  0.8330835927506015  0.5027474928020034
  0.6710178193730157  0.6625782996754309  0.3300673677165413
  0.8333247873406437  0.8333364085698511  0.4995404818623621
 -0.0050401411418102  0.0044993439630620  0.6682990163330844
  0.1661020021941081  0.1667895364938099  0.8329417651567735
  0.3343091276122828  0.0053388140577383  0.6680317196677789
  0.5001838173189995  0.1676684508882446  0.8340537581491918
  0.6695405637219439  0.0032346564329217  0.6679901090299123
  0.8322168681992602  0.1680607685860481  0.8338717581299285
 -0.0010690412941188  0.3323472955143323  0.6674158380315829
  0.1664659593537551  0.4990089788030033  0.8340477919333623
  0.3333229613318845  0.3333373832997602  0.6667781255150914
  0.5005421854125607  0.4998911199119380  0.8329471843813215
  0.6677186241877539  0.3343345572419630  0.6674143372877471
  0.8344283652271641  0.4986226400124388  0.8338704467145659
 -0.0028889044041704  0.6634445369756523  0.6679899507517589
  0.1681246337179545  0.8356022496904498  0.8316377304140578
  0.3323407339800650  0.6613415750100572  0.6680326689296048
  0.4985210344608159  0.8310827363885872  0.8316406475959170
  0.6716827726770952  0.6621770367855939  0.6683019565835482
  0.8333239153807496  0.8333375012800631  0.8330104540457834
  0.1013034747805310  0.1021293004201170 -0.0007879491262013
  0.2301526217655428  0.2318736293466513 -0.0013748992815488
  0.0631764272983713  0.2700667205464030  0.1662109555086770
  0.2681889510119831  0.0695196022901984  0.1593815756110503
  0.4371882466599509  0.1014219633306164  0.0019932232043056
  0.5657496645671579  0.2331143408874866 -0.0027575605084472
  0.3996241426977726  0.2708931105702022  0.1657590301657173
  0.6023321718971576  0.0656593096484931  0.1663353870491097
  0.7675996464220839  0.1032898269899589 -0.0006509946723073
  0.8969788164253703  0.2316477684615291 -0.0005836273391963
  0.7312583328148596  0.2689409623851257  0.1648730268459852
  0.9339684706344358  0.0665025664980657  0.1632705313310484
  0.1009002984860027  0.4335638125321166 -0.0027605677215087
  0.2294636451042047  0.5652568016219974  0.0019907708608574
  0.0643242944654046  0.6010168925755093  0.1663347758240294
  0.2670277729658362  0.3957810036633352  0.1657593577892327
  0.4364916456048105  0.4348058419811669 -0.0013720914546970
  0.5653369652774964  0.5645505670854413 -0.0007789057141739
  0.3984615638586814  0.5971613116038529  0.1593827716228772
  0.6034706926058130  0.3966153081601262  0.1662138108965577
  0.7696673526649681  0.4350390511170995 -0.0005828768266221
  0.8990477456754071  0.5633949426139129 -0.0006503311598393
  0.7326743868071902  0.6001746987614648  0.1632727469271180
  0.9353909988509413  0.3977404322246685  0.1648695390500931
  0.1042105530678204  0.7678203655251729 -0.0021660107385150
  0.2327278369208351  0.8967393543296602  0.0010361284570463
  0.0590935361566993  0.9347909703837743  0.1647701897500166
  0.2729901488945033  0.7321474430151769  0.1790112321841662
  0.4339172473776746  0.7699469406106302  0.0010368158595806
  0.5624407815032402  0.8988627163239427 -0.0021595104668153
  0.3936605610794067  0.9345400061472150  0.1790119319519579
  0.6075465933388492  0.7318855807538623  0.1647772068644547
  0.7687796373952804  0.7690621020483105 -0.0012272639176916
  0.8978645791416773  0.8976118887325647 -0.0012318102681070
  0.7308850643918884  0.9359038358769191  0.1658658081450629
  0.9357683187198276  0.7307768305910582  0.1658661445216990
  0.1006914015826950  0.1031764040701351  0.3318464157345871
  0.2330793034588536  0.2281032302751133  0.3324273359505119
  0.0628320326656202  0.2697798314507538  0.4990862767298755
  0.2663664168525747  0.0681016614879424  0.5019835533350699
  0.4385560300260431  0.1133988394477002  0.3314663335742689
  0.5682423094619571  0.2328995406713568  0.3334368704574340
  0.3998236603364547  0.2710903170468023  0.4998259685247766
  0.6031712056360902  0.0659930891174848  0.5005357603050410
  0.7697752797171367  0.1038312115253369  0.3332704584862974
  0.8966686169139022  0.2321136232558469  0.3315807786066853
  0.7321685558073973  0.2700540975092077  0.5007473610961775
  0.9337463900186679  0.0682524038104411  0.4989245867289247
  0.0984114370627914  0.4337802784054212  0.3334342599167979
  0.2280995001984702  0.5532787980747287  0.3314615025793315
  0.0634846678596108  0.6006870011492373  0.5005328040895571
  0.2668269578319220  0.3955838629861784  0.4998207529076839
  0.4335675664500434  0.4385684374997530  0.3324331121785111
  0.5659502862796164  0.5635035747470374  0.3318513654172774
  0.4002866079588331  0.5985729091364359  0.5019853711784944
  0.6038153550765275  0.3968979346112447  0.4990883283307556
  0.7699818294955935  0.4345665513566626  0.3315816388686376
  0.8968762584583259  0.5628457908092875  0.3332691918691085
  0.7328989796210413  0.5984267284652899  0.4989291720678145
  0.9344824666183414  0.3966290059333265  0.5007445938890507
  0.0985447495620657  0.7664051399795138  0.3303069080096305
  0.2092457589268778  0.9123529836563040  0.3313717610159705
  0.0533032955526641  0.9386885456431462  0.5009024488528808
  0.2540242321026030  0.7088003407816719  0.5011170991501880
  0.4573944944478762  0.7543311923776990  0.3313777270361019
  0.5681071530662201  0.9002688686042831  0.3303136377827030
  0.4126362899605249  0.9578758970591594  0.5011250937445952
  0.6133381793093610  0.7279848038019503  0.5009038920596321
  0.7710033911016307  0.7669032001755598  0.3325906267088134
  0.8956406487650787  0.8997691573125555  0.3325897790105661
  0.7280932636618473  0.9335976330757145  0.4999650526994675
  0.9385598934127288  0.7330810305703274  0.4999598998189845
  0.1009593714760743  0.1024065468480106  0.6660817733065678
  0.2308212028842396  0.2308354407943912  0.6665055941947035
  0.0634093824832650  0.2676952785557947  0.8330289156112829
  0.2677226193317521  0.0624815659391719  0.8345689776729964
  0.4347008965039191  0.1078379652175607  0.6677236274660535
  0.5665734992483428  0.2327305580397849  0.6690981671891647
  0.3976839461364929  0.2689076068628172  0.8336668762589263
  0.6020331486881384  0.0653242383779407  0.8331687469081906
  0.7700316194119077  0.1035280675090268  0.6661430866507835
  0.8977619284019702  0.2312114866471355  0.6675237266444634
  0.7317015636621056  0.2697510946332245  0.8329737526309055
  0.9335096341739472  0.0656894718199812  0.8351856689294003
  0.1000820189435410  0.4339488570378792  0.6690946833393594
  0.2319513913708373  0.5588427680041355  0.6677254484538354
  0.0646183124623838  0.6013546538860480  0.8331662481920495
  0.2689647778263167  0.3977681906446840  0.8336686589250865
  0.4358196289183897  0.4358470182382111  0.6665088795774807
  0.5656860956359543  0.5642715484768294  0.6660838078469496
  0.3989234875123487  0.6041983600199775  0.8345777525744228
  0.6032367118445165  0.3989857391132384  0.8330305364702849
  0.7688876798270355  0.4354737748675618  0.6675239295769040
  0.8966183073247355  0.5631533600613996  0.6661431868037675
  0.7331351332316085  0.6009895398590261  0.8351917797031034
  0.9349430435248772  0.3969359247110352  0.8329710663762101
  0.0970466603416713  0.7682412586221400  0.6730302482914819
  0.2321395165046253  0.8936418917447058  0.6532799495578275
  0.0653060701974349  0.9372137440410810  0.8303598294006133
  0.2698857829582547  0.7326174005140138  0.8312189628371622
  0.4345077525759471  0.7730408735038565  0.6532879818096230
  0.5696098475644706  0.8984343954725797  0.6730356572431290
  0.3967634332468920  0.9340632687833996  0.8312224421396177
  0.6013390938136546  0.7294673103321505  0.8303647825646538
  0.7708306159438514  0.7670751102692550  0.6666685170358090
  0.8958158370814218  0.8995979310337506  0.6666698570485446
  0.7319061055989049  0.9365747047968980  0.8337831378526175
  0.9347461721056206  0.7301016724377346  0.8337824033598549
  0.3333211548336011  0.8333462805986188  0.4174575800630063
 
  0.00000000E+00  0.00000000E+00  0.00000000E+00
  0.00000000E+00  0.00000000E+00  0.00000000E+00
  0.00000000E+00  0.00000000E+00  0.00000000E+00
  0.00000000E+00  0.00000000E+00  0.00000000E+00
  0.00000000E+00  0.00000000E+00  0.00000000E+00
  0.00000000E+00  0.00000000E+00  0.00000000E+00
  0.00000000E+00  0.00000000E+00  0.00000000E+00
  0.00000000E+00  0.00000000E+00  0.00000000E+00
  0.00000000E+00  0.00000000E+00  0.00000000E+00
  0.00000000E+00  0.00000000E+00  0.00000000E+00
  0.00000000E+00  0.00000000E+00  0.00000000E+00
  0.00000000E+00  0.00000000E+00  0.00000000E+00
  0.00000000E+00  0.00000000E+00  0.00000000E+00
  0.00000000E+00  0.00000000E+00  0.00000000E+00
  0.00000000E+00  0.00000000E+00  0.00000000E+00
  0.00000000E+00  0.00000000E+00  0.00000000E+00
  0.00000000E+00  0.00000000E+00  0.00000000E+00
  0.00000000E+00  0.00000000E+00  0.00000000E+00
  0.00000000E+00  0.00000000E+00  0.00000000E+00
  0.00000000E+00  0.00000000E+00  0.00000000E+00
  0.00000000E+00  0.00000000E+00  0.00000000E+00
  0.00000000E+00  0.00000000E+00  0.00000000E+00
  0.00000000E+00  0.00000000E+00  0.00000000E+00
  0.00000000E+00  0.00000000E+00  0.00000000E+00
  0.00000000E+00  0.00000000E+00  0.00000000E+00
  0.00000000E+00  0.00000000E+00  0.00000000E+00
  0.00000000E+00  0.00000000E+00  0.00000000E+00
  0.00000000E+00  0.00000000E+00  0.00000000E+00
  0.00000000E+00  0.00000000E+00  0.00000000E+00
  0.00000000E+00  0.00000000E+00  0.00000000E+00
  0.00000000E+00  0.00000000E+00  0.00000000E+00
  0.00000000E+00  0.00000000E+00  0.00000000E+00
  0.00000000E+00  0.00000000E+00  0.00000000E+00
  0.00000000E+00  0.00000000E+00  0.00000000E+00
  0.00000000E+00  0.00000000E+00  0.00000000E+00
  0.00000000E+00  0.00000000E+00  0.00000000E+00
  0.00000000E+00  0.00000000E+00  0.00000000E+00
  0.00000000E+00  0.00000000E+00  0.00000000E+00
  0.00000000E+00  0.00000000E+00  0.00000000E+00
  0.00000000E+00  0.00000000E+00  0.00000000E+00
  0.00000000E+00  0.00000000E+00  0.00000000E+00
  0.00000000E+00  0.00000000E+00  0.00000000E+00
  0.00000000E+00  0.00000000E+00  0.00000000E+00
  0.00000000E+00  0.00000000E+00  0.00000000E+00
  0.00000000E+00  0.00000000E+00  0.00000000E+00
  0.00000000E+00  0.00000000E+00  0.00000000E+00
  0.00000000E+00  0.00000000E+00  0.00000000E+00
  0.00000000E+00  0.00000000E+00  0.00000000E+00
  0.00000000E+00  0.00000000E+00  0.00000000E+00
  0.00000000E+00  0.00000000E+00  0.00000000E+00
  0.00000000E+00  0.00000000E+00  0.00000000E+00
  0.00000000E+00  0.00000000E+00  0.00000000E+00
  0.00000000E+00  0.00000000E+00  0.00000000E+00
  0.00000000E+00  0.00000000E+00  0.00000000E+00
  0.00000000E+00  0.00000000E+00  0.00000000E+00
  0.00000000E+00  0.00000000E+00  0.00000000E+00
  0.00000000E+00  0.00000000E+00  0.00000000E+00
  0.00000000E+00  0.00000000E+00  0.00000000E+00
  0.00000000E+00  0.00000000E+00  0.00000000E+00
  0.00000000E+00  0.00000000E+00  0.00000000E+00
  0.00000000E+00  0.00000000E+00  0.00000000E+00
  0.00000000E+00  0.00000000E+00  0.00000000E+00
  0.00000000E+00  0.00000000E+00  0.00000000E+00
  0.00000000E+00  0.00000000E+00  0.00000000E+00
  0.00000000E+00  0.00000000E+00  0.00000000E+00
  0.00000000E+00  0.00000000E+00  0.00000000E+00
  0.00000000E+00  0.00000000E+00  0.00000000E+00
  0.00000000E+00  0.00000000E+00  0.00000000E+00
  0.00000000E+00  0.00000000E+00  0.00000000E+00
  0.00000000E+00  0.00000000E+00  0.00000000E+00
  0.00000000E+00  0.00000000E+00  0.00000000E+00
  0.00000000E+00  0.00000000E+00  0.00000000E+00
  0.00000000E+00  0.00000000E+00  0.00000000E+00
  0.00000000E+00  0.00000000E+00  0.00000000E+00
  0.00000000E+00  0.00000000E+00  0.00000000E+00
  0.00000000E+00  0.00000000E+00  0.00000000E+00
  0.00000000E+00  0.00000000E+00  0.00000000E+00
  0.00000000E+00  0.00000000E+00  0.00000000E+00
  0.00000000E+00  0.00000000E+00  0.00000000E+00
  0.00000000E+00  0.00000000E+00  0.00000000E+00
  0.00000000E+00  0.00000000E+00  0.00000000E+00
  0.00000000E+00  0.00000000E+00  0.00000000E+00
  0.00000000E+00  0.00000000E+00  0.00000000E+00
  0.00000000E+00  0.00000000E+00  0.00000000E+00
  0.00000000E+00  0.00000000E+00  0.00000000E+00
  0.00000000E+00  0.00000000E+00  0.00000000E+00
  0.00000000E+00  0.00000000E+00  0.00000000E+00
  0.00000000E+00  0.00000000E+00  0.00000000E+00
  0.00000000E+00  0.00000000E+00  0.00000000E+00
  0.00000000E+00  0.00000000E+00  0.00000000E+00
  0.00000000E+00  0.00000000E+00  0.00000000E+00
  0.00000000E+00  0.00000000E+00  0.00000000E+00
  0.00000000E+00  0.00000000E+00  0.00000000E+00
  0.00000000E+00  0.00000000E+00  0.00000000E+00
  0.00000000E+00  0.00000000E+00  0.00000000E+00
  0.00000000E+00  0.00000000E+00  0.00000000E+00
  0.00000000E+00  0.00000000E+00  0.00000000E+00
  0.00000000E+00  0.00000000E+00  0.00000000E+00
  0.00000000E+00  0.00000000E+00  0.00000000E+00
  0.00000000E+00  0.00000000E+00  0.00000000E+00
  0.00000000E+00  0.00000000E+00  0.00000000E+00
  0.00000000E+00  0.00000000E+00  0.00000000E+00
  0.00000000E+00  0.00000000E+00  0.00000000E+00
  0.00000000E+00  0.00000000E+00  0.00000000E+00
  0.00000000E+00  0.00000000E+00  0.00000000E+00
  0.00000000E+00  0.00000000E+00  0.00000000E+00
  0.00000000E+00  0.00000000E+00  0.00000000E+00
  0.00000000E+00  0.00000000E+00  0.00000000E+00
  0.00000000E+00  0.00000000E+00  0.00000000E+00
  0.00000000E+00  0.00000000E+00  0.00000000E+00
  0.00000000E+00  0.00000000E+00  0.00000000E+00
  0.00000000E+00  0.00000000E+00  0.00000000E+00
  0.00000000E+00  0.00000000E+00  0.00000000E+00
  0.00000000E+00  0.00000000E+00  0.00000000E+00
  0.00000000E+00  0.00000000E+00  0.00000000E+00
  0.00000000E+00  0.00000000E+00  0.00000000E+00
  0.00000000E+00  0.00000000E+00  0.00000000E+00
  0.00000000E+00  0.00000000E+00  0.00000000E+00
  0.00000000E+00  0.00000000E+00  0.00000000E+00
  0.00000000E+00  0.00000000E+00  0.00000000E+00
  0.00000000E+00  0.00000000E+00  0.00000000E+00
  0.00000000E+00  0.00000000E+00  0.00000000E+00
  0.00000000E+00  0.00000000E+00  0.00000000E+00
  0.00000000E+00  0.00000000E+00  0.00000000E+00
  0.00000000E+00  0.00000000E+00  0.00000000E+00
  0.00000000E+00  0.00000000E+00  0.00000000E+00
  0.00000000E+00  0.00000000E+00  0.00000000E+00
  0.00000000E+00  0.00000000E+00  0.00000000E+00
  0.00000000E+00  0.00000000E+00  0.00000000E+00
  0.00000000E+00  0.00000000E+00  0.00000000E+00
  0.00000000E+00  0.00000000E+00  0.00000000E+00
  0.00000000E+00  0.00000000E+00  0.00000000E+00
  0.00000000E+00  0.00000000E+00  0.00000000E+00
  0.00000000E+00  0.00000000E+00  0.00000000E+00
  0.00000000E+00  0.00000000E+00  0.00000000E+00
  0.00000000E+00  0.00000000E+00  0.00000000E+00
  0.00000000E+00  0.00000000E+00  0.00000000E+00
  0.00000000E+00  0.00000000E+00  0.00000000E+00
  0.00000000E+00  0.00000000E+00  0.00000000E+00
  0.00000000E+00  0.00000000E+00  0.00000000E+00
  0.00000000E+00  0.00000000E+00  0.00000000E+00
  0.00000000E+00  0.00000000E+00  0.00000000E+00
  0.00000000E+00  0.00000000E+00  0.00000000E+00
  0.00000000E+00  0.00000000E+00  0.00000000E+00
  0.00000000E+00  0.00000000E+00  0.00000000E+00
  0.00000000E+00  0.00000000E+00  0.00000000E+00
  0.00000000E+00  0.00000000E+00  0.00000000E+00
  0.00000000E+00  0.00000000E+00  0.00000000E+00
  0.00000000E+00  0.00000000E+00  0.00000000E+00
  0.00000000E+00  0.00000000E+00  0.00000000E+00
  0.00000000E+00  0.00000000E+00  0.00000000E+00
  0.00000000E+00  0.00000000E+00  0.00000000E+00
  0.00000000E+00  0.00000000E+00  0.00000000E+00
  0.00000000E+00  0.00000000E+00  0.00000000E+00
  0.00000000E+00  0.00000000E+00  0.00000000E+00
  0.00000000E+00  0.00000000E+00  0.00000000E+00
  0.00000000E+00  0.00000000E+00  0.00000000E+00
  0.00000000E+00  0.00000000E+00  0.00000000E+00
  0.00000000E+00  0.00000000E+00  0.00000000E+00
  0.00000000E+00  0.00000000E+00  0.00000000E+00
  0.00000000E+00  0.00000000E+00  0.00000000E+00
  0.00000000E+00  0.00000000E+00  0.00000000E+00
  0.00000000E+00  0.00000000E+00  0.00000000E+00
