CONTCAR-jianxi                          
   1.00000000000000     
    14.4746026128251408   -0.0030957227831611    0.0000088347402303
    -0.0030551291343910   14.6066467328938430   -0.0000522910293426
     0.0000057658895130   -0.0000350004245160    9.7872285547428870
   Sn   O    Ti
    54   108     1
Direct
  0.9791681260356174  0.0142556231850629  0.0064077882846939
  0.1577478108500477  0.1830938171128973  0.1839932956446393
  0.3468634771515984  0.0083402421498001  0.9832438254987846
  0.5005219234720252  0.1763470435728224  0.1657061181200729
  0.6719271490653143  0.9877532651401308  0.0039979018928889
  0.8224022067980391  0.1617807137555584  0.1644688736519730
  0.0055976068538376  0.3371311691700599  0.0026087722678909
  0.1725648405990731  0.4905889407307837  0.1656312362134605
  0.3376175424024361  0.3414581534426707  0.9990898195920868
  0.5035842792941538  0.5087700474565043  0.1738598800740202
  0.6531710942948897  0.3403918743292403  0.9896935448165297
  0.8380847666812455  0.4886547539472760  0.1698471921754650
  0.9983467598232827  0.6453736550818967  0.9971083269312779
  0.1377625609421925  0.7763250833474696  0.1487905822583942
  0.3369221755688208  0.6599700049194149  0.9991204769863564
  0.5025484478980637  0.8293821673352405  0.1597920369286374
  0.6793572414489722  0.6567376010055510  0.0088807576924708
  0.8467277486990712  0.8330601315979728  0.1566376253765449
  0.9770359235823471  0.0053583988519583  0.3424827284236359
  0.1672994119634404  0.1678342246923900  0.5056838789692373
  0.3458948852023848  0.0047859155220639  0.3292262626823280
  0.4997380243902737  0.1702449180510708  0.5030507939894940
  0.6573909310092684  0.0112002519015857  0.3339176532331828
  0.8271369503057604  0.1639514892234596  0.5086451117719734
  0.9934596430037396  0.3376881092394172  0.3464419351577022
  0.1648377850424879  0.4923928353533236  0.4994527173543010
  0.3484342327488227  0.3349285873249347  0.3340852693196959
  0.4962894172462933  0.5093479784583581  0.4999548061988224
  0.6588498364502748  0.3410045181170080  0.3313043453930262
  0.8368835557055718  0.4983575171873874  0.5025960330246737
  0.9965305642685613  0.6597971277920188  0.3335827483259206
  0.1662875928406772  0.8481720722674478  0.4945126178149978
  0.3335456740966979  0.6778900445291990  0.3248068487583262
  0.5020667191538177  0.8406602061859452  0.5020551987316800
  0.6764235934870334  0.6677022964110817  0.3282385358159268
  0.8369263458158597  0.8317614219778695  0.5105452553176001
  0.9986371409632808  0.9975831024916383  0.6752790320208658
  0.1726161015315535  0.1696215190211917  0.8477639104774863
  0.3383454741274209  0.9973383699695025  0.6582371810893610
  0.5056413818219090  0.1625921731077737  0.8346124080874610
  0.6616567885004034  0.9889695914290715  0.6818904143636295
  0.8292877153064877  0.1775474417113899  0.8405965385588273
  0.0013943884395919  0.3318058081214809  0.6718012487668343
  0.1670524084322346  0.4927377088173852  0.8272203008500778
  0.3314721252452789  0.3335531442571550  0.6573505981538229
  0.5055444999193268  0.5106723833793730  0.8316482272385789
  0.6647822295141096  0.3317916963560429  0.6546241313967475
  0.8344373992408504  0.4948741349458191  0.8392024096024976
  0.0144431145713156  0.6637127320838637  0.6568415344367091
  0.1660933648843499  0.8257036938347944  0.8305331259659585
  0.3230400290590027  0.6702262243985780  0.6540375131838053
  0.4978717912932275  0.8165526498965578  0.8218611115493498
  0.6724978508936680  0.6578086016344570  0.6772118538062688
  0.8355613119642648  0.8196688047967023  0.8378591385603560
  0.1069705666681037  0.1162073954081262  0.0307708344952521
  0.2311390175460025  0.2425232009547708  0.0040288945021491
  0.0523976586067073  0.2707646053753235  0.1840224364809097
  0.2743461302293922  0.0565476665754647  0.1594418285685334
  0.4240845589451498  0.1236691361744392  0.9968839505927058
  0.5658467337729063  0.2270312709836215  0.0009982147525356
  0.4024142244294744  0.2760423226499691  0.1618331565849348
  0.5988363645878467  0.0633516761474489  0.1653732983111913
  0.7700322968331911  0.0860720244364945  0.9925945298785646
  0.9061637709880979  0.2240346388884068  0.9994017763946309
  0.7261238302874319  0.2664514734483333  0.1584689152860022
  0.9273023716922710  0.0648592368324498  0.1668867909023105
  0.1193622777370991  0.4248949625850025  0.9968640992229506
  0.2435908216017732  0.5565721581377810  0.0016622543172510
  0.0713424100394009  0.5967805732910986  0.1549814982481629
  0.2817367709000256  0.4038623211863991  0.1737009540020267
  0.4475836102064147  0.4317065934579474  0.9987728761211830
  0.5671348208961878  0.5722124914784118  0.9892117868293392
  0.3983707261783052  0.6113706393043060  0.1694747725550091
  0.6034275513361781  0.4113613852845353  0.1661673203000048
  0.7753875315344677  0.4262792281274777  0.9973282306488223
  0.9020685889904193  0.5495565240729893  0.0046530188875343
  0.7344456287759281  0.5884095680913611  0.1551947078598017
  0.9512993013861339  0.4076018169858058  0.1753025853250884
  0.1008975903995125  0.7397428579400991  0.9599034649712035
  0.2370887583122414  0.9055749295618667  0.9969717935119927
  0.0466134081791538  0.9287897842697861  0.1660646680473572
  0.2700532786238672  0.7355334167181747  0.1665358286655627
  0.4466461245186640  0.7489409086039185  0.9896444837245020
  0.5575560685369375  0.9041433355469494  0.9807416681989325
  0.3902006602281784  0.9275477362261405  0.1517320019829308
  0.6060104203338963  0.7341894709343316  0.1709159657681188
  0.7863228985945777  0.7613629373017889  0.0125354841643970
  0.9064911285018937  0.8946112517694902  0.9884401599309131
  0.7398861467853677  0.9394942241241218  0.1801832900790289
  0.9547328584845982  0.7355257012600340  0.1563577986065166
  0.0937797515858997  0.1117061673823674  0.3348191354046494
  0.2455347364048484  0.2260450207252299  0.3296427669372566
  0.0682400800373762  0.2669364762682709  0.5138183450662126
  0.2743570258795212  0.0685634183208087  0.4833404485171208
  0.4571134720728466  0.1029215385487663  0.3282680796948850
  0.5696462014632259  0.2383675220015153  0.3337269859348826
  0.3983019376501740  0.2624854132124316  0.4963127735622218
  0.5902096007527241  0.0582282291687017  0.5098720697533632
  0.7758934220154191  0.0892288197514455  0.3442649366278100
  0.8921079985978521  0.2243561911515748  0.3449862819460159
  0.7213745325224213  0.2719778133660606  0.4951115405814080
  0.9310645130570618  0.0694818743329833  0.5118091127749019
  0.1120592739063635  0.4246049364084795  0.3355019100602381
  0.2240947328103519  0.5746484659338161  0.3367296793609105
  0.0714834074803173  0.6043906203814619  0.4943988089597093
  0.2636399153072410  0.3823435883357831  0.4902106583382528
  0.4287482253834208  0.4482289978175732  0.3338941725699153
  0.5698021583223781  0.5648186231843697  0.3316663725001491
  0.3938666924206499  0.6094374797518429  0.4881022687299897
  0.5951962312923809  0.4046283453345317  0.4993338281506704
  0.7749122062152425  0.4230091633144223  0.3455318095170187
  0.9006720169325773  0.5599210403450682  0.3286872253989559
  0.7338325492335496  0.6045823696379444  0.5040665220768195
  0.9424281272429736  0.4040305081974273  0.5172146465478350
  0.1000378762835392  0.7616601997074686  0.3418996975349979
  0.2280774690337180  0.9106911208388012  0.3269726997792706
  0.0576490801001154  0.9329125671199199  0.4868465725690880
  0.2739212058016477  0.7518347543229276  0.5056599202998151
  0.4399242930443610  0.7747456818701242  0.3322496326358818
  0.5611667035657836  0.9052834537728808  0.3258526564052296
  0.4039607612031320  0.9359638514680892  0.4871164006402253
  0.6217907625914031  0.7449127072396295  0.5033885487078235
  0.7990368765774277  0.7580928391350655  0.3335413151045700
  0.8855696792067173  0.8942623138297164  0.3305354611451186
  0.7269126775272544  0.9306875509163967  0.5120850150261714
  0.9527919683239736  0.7410055174835480  0.5029920606424017
  0.1005636252194874  0.0986292379942678  0.6677430121465727
  0.2318400825459560  0.2282458858734645  0.6672014628677557
  0.0677189058167754  0.2702514597618618  0.8476757058355442
  0.2728147114256814  0.0687559631551311  0.8357593407433228
  0.4313866193665203  0.1104589935862222  0.6716197763670125
  0.5662837765098665  0.2295691056346345  0.6664342494709944
  0.4080335805848502  0.2788258814690753  0.8257341107142889
  0.6047607282008803  0.0557584446719282  0.8543932270604674
  0.7773021893488906  0.1034342247866358  0.6778539276502183
  0.9065410710633938  0.2366785336176744  0.6699833391486516
  0.7203163161056938  0.2663421955280966  0.8346899888872381
  0.9381080789616235  0.0694619017216100  0.8283932550275434
  0.0949557929511180  0.4307717340026045  0.6547177666713486
  0.2385044443479722  0.5555047654894520  0.6548089284872410
  0.0630532241267691  0.5813435189077414  0.8326901053835591
  0.2710821859817422  0.4032678572257208  0.8306139803280094
  0.4340849535263940  0.4455549840896483  0.6735965730410330
  0.5741392688726613  0.5691898751595612  0.6685421641700950
  0.3990671822266431  0.6057303179358913  0.8224573783839921
  0.6103002287370530  0.4083602714040060  0.8309243099328438
  0.7561440316812994  0.4409193358022338  0.6569044644899141
  0.9045944626058893  0.5609043996191165  0.6607895094582457
  0.7308640085489795  0.5919811009810579  0.8388997132285023
  0.9348122865040069  0.4004876637498559  0.8307756003086670
  0.1211929031949122  0.7498214562086685  0.6699093659456331
  0.2162629569293692  0.9133424267968905  0.6734092419807767
  0.0690540566995097  0.9452301283500590  0.8565119952296053
  0.2691910893840178  0.7322225648184328  0.8266272013828494
  0.4390768020310682  0.7652678092241141  0.6621873332344317
  0.5569608629627723  0.9081687744583706  0.6721574173378660
  0.3958953963121326  0.9349916619203846  0.8224061353840533
  0.6052635082278348  0.7207688684670798  0.8489946616167574
  0.7704496411558828  0.7573180305787036  0.6702711404548176
  0.9089949477228618  0.8774165387414593  0.6731038937096242
  0.7416618816195413  0.9309630181746397  0.8331136246464821
  0.9363243834503319  0.7192165802447464  0.8402035018260008
  0.1737138067495733  0.9512432755269957  0.1477717199566294
 
 -0.11885430E-02  0.12244250E-02 -0.39796365E-03
  0.44003027E-03  0.27948397E-02  0.22678306E-02
 -0.94428717E-03  0.44747259E-02 -0.65121639E-03
  0.13987416E-02  0.39251465E-02  0.49162348E-02
  0.35293356E-02 -0.19614060E-03 -0.27435848E-02
  0.15536225E-02  0.20700920E-02  0.31465285E-02
 -0.15160623E-03  0.30327878E-03 -0.29857849E-02
 -0.31166803E-03  0.26935696E-04 -0.22766422E-02
  0.65542775E-02  0.67632530E-03  0.10111002E-02
  0.21863545E-02  0.14335641E-02  0.71260823E-03
  0.13059447E-02  0.77543149E-04  0.14456314E-02
 -0.61236397E-02  0.20441550E-02  0.14209077E-02
 -0.30334716E-02  0.49335940E-02  0.16499353E-02
 -0.40610993E-02 -0.11591619E-02 -0.73213108E-03
  0.38784012E-03  0.30223335E-03 -0.39738445E-02
  0.46777561E-03 -0.14070821E-03  0.24753433E-02
 -0.37986996E-02 -0.28804694E-02  0.23577959E-02
  0.31410874E-02 -0.34742583E-03 -0.10097595E-02
 -0.21211346E-02 -0.32044802E-02 -0.17899800E-02
 -0.14050968E-02 -0.34437839E-03 -0.98979511E-03
 -0.25426497E-02 -0.27678538E-02  0.32265830E-02
  0.82151016E-03 -0.18921889E-02 -0.38717672E-02
 -0.77186838E-03 -0.23526352E-02  0.18684855E-02
 -0.21682596E-02  0.35945452E-02 -0.22870737E-03
  0.64532870E-04 -0.30619498E-02 -0.11759544E-02
  0.29316585E-02 -0.17828820E-02  0.44027235E-03
 -0.57887168E-03 -0.50813710E-02  0.15770612E-02
  0.37687007E-03 -0.18140535E-03 -0.34958616E-02
  0.31817726E-02  0.68482784E-04  0.25882009E-02
 -0.14118828E-02  0.16192034E-02 -0.71817950E-03
  0.41046208E-03  0.96482557E-03 -0.12606725E-02
  0.15980211E-02 -0.13321116E-02  0.96505533E-03
  0.24575433E-02  0.34029213E-02  0.11716500E-02
 -0.40556620E-03  0.10257459E-02  0.57142564E-03
 -0.12281213E-02 -0.39482316E-02  0.18480931E-02
 -0.27635428E-02  0.21024524E-02  0.26190914E-02
  0.44087686E-03  0.10640673E-02  0.31089899E-02
 -0.19202320E-02 -0.84807972E-03 -0.27531779E-02
 -0.12538123E-02 -0.23489983E-02 -0.44968567E-02
 -0.20300563E-02 -0.22569076E-02  0.44433395E-03
 -0.31073363E-03  0.64690839E-03 -0.95666740E-03
 -0.13753796E-02 -0.10260180E-02  0.19575666E-03
  0.51519674E-02 -0.35183312E-02 -0.72433480E-03
  0.28940522E-02 -0.51630516E-03  0.78227303E-03
  0.33350193E-03 -0.52247791E-03  0.10401607E-02
 -0.17370445E-02  0.29746937E-02 -0.11023739E-02
 -0.26249352E-02 -0.90971251E-03  0.25560489E-03
 -0.16237099E-02  0.29728468E-02 -0.29618181E-02
  0.34020247E-02  0.13575491E-02 -0.53381576E-04
  0.25244111E-02  0.14371065E-02 -0.52581057E-03
  0.37655712E-03 -0.89535143E-03  0.42882201E-02
 -0.21477311E-02 -0.32396668E-02  0.13113410E-02
  0.16123708E-02  0.12554229E-02 -0.16790650E-02
 -0.80396377E-04 -0.21308677E-02 -0.13484020E-02
  0.20472826E-02  0.18021775E-02 -0.67537673E-02
 -0.51610608E-02 -0.14717503E-02 -0.69111788E-02
  0.23189111E-02  0.51067638E-02 -0.53577753E-02
  0.43264519E-02  0.25140843E-02 -0.91593916E-02
  0.10811980E-02 -0.19202534E-02  0.39402252E-03
 -0.46010288E-02  0.86991163E-02 -0.43633678E-02
  0.56372484E-02 -0.12111019E-01 -0.39039631E-02
  0.52673375E-02 -0.20894686E-02 -0.85028911E-02
  0.22982287E-02  0.43525266E-02  0.12593672E-01
  0.26071226E-02 -0.24523416E-02 -0.21469532E-02
 -0.51293732E-03 -0.30281310E-02  0.51082550E-02
 -0.76748943E-02 -0.25732820E-02  0.46426428E-03
  0.33428724E-02  0.77809468E-02 -0.85692669E-02
  0.45340544E-04  0.20821942E-01  0.10745434E-02
 -0.15123709E-02  0.13376698E-02 -0.13634018E-01
  0.22878656E-02  0.39434637E-02  0.10104857E-01
  0.50882904E-02  0.73928004E-02  0.38908113E-02
  0.29933986E-02 -0.47102170E-02  0.18084536E-02
 -0.31903196E-02 -0.62705245E-02 -0.19939547E-02
 -0.13092041E-03 -0.10773064E-02  0.44930402E-02
  0.90704122E-02 -0.36440509E-02 -0.15663240E-02
 -0.92097219E-02 -0.72764042E-03  0.26651213E-03
 -0.67810919E-02 -0.90271612E-02 -0.39605075E-02
  0.79415195E-03 -0.54734016E-02 -0.20878337E-02
 -0.69044618E-02  0.31153832E-02 -0.92955059E-04
 -0.70211721E-02 -0.74032445E-02 -0.36078274E-02
  0.57365373E-02  0.62362765E-03  0.33077456E-02
 -0.54325941E-02  0.93498104E-02  0.35080397E-02
 -0.69526306E-02 -0.12204419E-01  0.16058692E-02
 -0.39872569E-02 -0.81658475E-02 -0.53082674E-02
  0.77653671E-02 -0.42118506E-02  0.37709758E-02
  0.98626986E-02  0.11714961E-01  0.37947847E-03
 -0.39542425E-02 -0.73502064E-02 -0.74241513E-02
 -0.70111988E-02 -0.84656148E-02  0.58681556E-02
  0.28281669E-02  0.10864989E-01  0.57314340E-02
 -0.10949212E-01 -0.69484634E-02  0.54514653E-04
 -0.52810644E-02  0.21171364E-02  0.63520290E-02
  0.95326093E-02  0.65172380E-03  0.78173170E-02
 -0.88287794E-03  0.51793764E-02 -0.49874732E-02
  0.19137049E-02  0.93534423E-02 -0.23221040E-02
 -0.44024352E-03  0.66005329E-02  0.70513536E-02
 -0.96844214E-02 -0.54224559E-02  0.21406483E-02
 -0.53818294E-03 -0.67961185E-02  0.39109746E-03
  0.34870705E-02 -0.24102186E-02  0.79344913E-02
  0.74953602E-02  0.22234307E-02  0.55961254E-02
 -0.43251413E-02  0.73168398E-03 -0.12788464E-01
  0.39279069E-03  0.47375896E-02 -0.13101158E-02
  0.10833332E-02 -0.85007415E-03  0.49490779E-02
 -0.67362888E-02  0.22937247E-02  0.24661063E-02
  0.37185601E-02 -0.17387687E-02  0.81075097E-02
 -0.45961091E-02  0.43653760E-02  0.93629121E-02
 -0.93009123E-03  0.22389198E-02  0.48554114E-02
 -0.16820539E-02  0.16489193E-02  0.77414370E-02
  0.26033036E-02 -0.37277118E-02  0.10728069E-01
 -0.49565276E-02  0.13385097E-02 -0.14005183E-02
  0.61148649E-02 -0.74757784E-02  0.22192594E-02
 -0.53314230E-03 -0.42140527E-02  0.29732852E-02
 -0.66784700E-02  0.60961580E-02 -0.45237441E-02
 -0.11393439E-01 -0.23937828E-02 -0.26271977E-02
  0.92702404E-02 -0.47187746E-02  0.92471776E-02
 -0.39629140E-02 -0.75645984E-02  0.63621455E-03
 -0.38882974E-02  0.31564730E-03  0.14006216E-01
  0.83327974E-02  0.20297086E-02  0.54850847E-03
 -0.52477589E-02  0.60012677E-02  0.18210755E-02
  0.44387605E-02 -0.13459391E-02  0.35123224E-02
  0.13029320E-01  0.13807137E-01 -0.53072865E-02
  0.75010092E-02 -0.54351857E-03  0.50115664E-02
 -0.13876796E-01 -0.31557655E-02  0.25363874E-02
  0.91892073E-03  0.68377415E-02  0.11944384E-02
  0.22939632E-02 -0.33529365E-02  0.68170003E-02
  0.53423779E-02  0.51654027E-02  0.46668805E-02
 -0.40607240E-02 -0.29423594E-02 -0.99540835E-02
  0.19245195E-02 -0.20824920E-02 -0.13183542E-01
 -0.65365578E-02 -0.38218582E-02 -0.10084915E-02
 -0.76767795E-02 -0.25922531E-02 -0.29434486E-02
  0.75276418E-02  0.91906855E-03 -0.65696120E-03
  0.90841325E-02  0.73831550E-02 -0.72040369E-02
 -0.30614424E-02 -0.47554862E-02  0.55317822E-02
 -0.22637101E-02 -0.94113160E-02 -0.77497618E-02
  0.62580027E-02  0.10456811E-01  0.79094287E-03
 -0.87339392E-02 -0.14086223E-02 -0.13476807E-02
  0.19959852E-02  0.27343126E-02  0.62782440E-03
  0.28603149E-02  0.32309396E-02  0.23179669E-02
  0.34248864E-02  0.90636076E-03 -0.94051296E-02
 -0.58049452E-03 -0.46715114E-03  0.95635565E-02
 -0.11491355E-01  0.14533732E-01 -0.14033410E-02
  0.13080222E-02 -0.13235943E-01 -0.33749101E-02
  0.16788497E-01  0.20206225E-02  0.84928937E-02
  0.67290355E-02 -0.15822496E-02 -0.45130597E-02
  0.19640768E-02 -0.38650362E-02 -0.42813790E-02
 -0.95816620E-02  0.29208967E-02 -0.49860602E-02
  0.10254127E-01 -0.88864941E-03  0.10615650E-02
  0.15347590E-01  0.44904183E-02  0.11768777E-02
 -0.51649594E-02  0.69311649E-02 -0.12170347E-01
 -0.10984139E-01 -0.19099593E-01 -0.11129657E-01
 -0.67508189E-02 -0.38875542E-02  0.78617956E-02
  0.83995898E-02 -0.26040119E-02  0.35428778E-02
 -0.13577538E-02 -0.18080028E-02 -0.39548461E-02
  0.67796081E-02 -0.64228689E-02  0.65680510E-02
 -0.36474713E-02  0.60107333E-02 -0.86279292E-04
 -0.18643143E-02  0.54946360E-02  0.27132495E-02
 -0.30711350E-04  0.21542096E-02 -0.21074948E-02
  0.19097011E-02  0.73908315E-02 -0.50135886E-02
  0.19718483E-02 -0.33273196E-02 -0.11240722E-01
 -0.83817294E-02  0.10254295E-01 -0.43132562E-02
  0.84506429E-02 -0.51464621E-02 -0.55163857E-02
 -0.69342301E-02 -0.25553076E-02 -0.75993475E-02
 -0.55275575E-02 -0.23011715E-01  0.35887306E-02
  0.32216849E-02  0.39437247E-02 -0.96324836E-02
 
           1
   1.00000000000000     
  0.34614258E+00 -0.42464973E-03 -0.11572067E-03  0.00000000E+00
  0.97908603E+00  0.14339432E-01  0.63671273E-02
  0.15777825E+00  0.18328516E+00  0.18422501E+00
  0.34679830E+00  0.86465768E-02  0.98317729E+00
  0.50061861E+00  0.17661579E+00  0.16620843E+00
  0.67217098E+00  0.98773989E+00  0.37175786E-02
  0.82250957E+00  0.16192246E+00  0.16479037E+00
  0.55871374E-02  0.33715193E+00  0.23037029E-02
  0.17254331E+00  0.49059078E+00  0.16539862E+00
  0.33807036E+00  0.34150455E+00  0.99919313E+00
  0.50373535E+00  0.50886822E+00  0.17393269E+00
  0.65326132E+00  0.34039720E+00  0.98984125E+00
  0.83766174E+00  0.48879461E+00  0.16999237E+00
  0.99813726E+00  0.64571137E+00  0.99727691E+00
  0.13748198E+00  0.77624567E+00  0.14871578E+00
  0.33694897E+00  0.65999070E+00  0.99871445E+00
  0.50258076E+00  0.82937254E+00  0.16004495E+00
  0.67909476E+00  0.65654034E+00  0.91216622E-02
  0.84694475E+00  0.83303639E+00  0.15653445E+00
  0.97688934E+00  0.51389823E-02  0.34229984E+00
  0.16720233E+00  0.16781063E+00  0.50558275E+00
  0.34571918E+00  0.45963863E-02  0.32955593E+00
  0.49979475E+00  0.17011539E+00  0.50265520E+00
  0.65733757E+00  0.11039175E-01  0.33410856E+00
  0.82698720E+00  0.16419755E+00  0.50862175E+00
  0.99346406E+00  0.33747848E+00  0.34632178E+00
  0.16504030E+00  0.49227082E+00  0.49949770E+00
  0.34839417E+00  0.33458070E+00  0.33424640E+00
  0.49631545E+00  0.50933556E+00  0.49959762E+00
  0.65906965E+00  0.34100925E+00  0.33156879E+00
  0.83678604E+00  0.49846835E+00  0.50252265E+00
  0.99655894E+00  0.65986319E+00  0.33345394E+00
  0.16639798E+00  0.84808090E+00  0.49461122E+00
  0.33371551E+00  0.67812305E+00  0.32492656E+00
  0.50203871E+00  0.84073042E+00  0.50211358E+00
  0.67633869E+00  0.66743198E+00  0.32842736E+00
  0.83673545E+00  0.83190532E+00  0.51081286E+00
  0.99866761E+00  0.99765596E+00  0.67559669E+00
  0.17248343E+00  0.16956343E+00  0.84748261E+00
  0.33825882E+00  0.99717753E+00  0.65777772E+00
  0.50550110E+00  0.16243763E+00  0.83465781E+00
  0.66163533E+00  0.98901388E+00  0.68179267E+00
  0.82919268E+00  0.17747718E+00  0.84061654E+00
  0.17502692E-02  0.33156501E+00  0.67172724E+00
  0.16725234E+00  0.49270240E+00  0.82730023E+00
  0.33149516E+00  0.33351738E+00  0.65745688E+00
  0.50542454E+00  0.51087601E+00  0.83153559E+00
  0.66460087E+00  0.33172938E+00  0.65465025E+00
  0.83432527E+00  0.49507764E+00  0.83889979E+00
  0.14678168E-01  0.66380572E+00  0.65683608E+00
  0.16626779E+00  0.82580212E+00  0.83047940E+00
  0.32306603E+00  0.67016493E+00  0.65447566E+00
  0.49772337E+00  0.81633082E+00  0.82199510E+00
  0.67260926E+00  0.65789457E+00  0.67704030E+00
  0.83555573E+00  0.81952292E+00  0.83772137E+00
  0.10711203E+00  0.11633080E+00  0.30080776E-01
  0.23078244E+00  0.24242236E+00  0.33227517E-02
  0.52557938E-01  0.27111426E+00  0.18347501E+00
  0.27464507E+00  0.56719847E-01  0.15850598E+00
  0.42415923E+00  0.12353769E+00  0.99692421E+00
  0.56552899E+00  0.22762676E+00  0.55239561E-03
  0.40280351E+00  0.27521326E+00  0.16143427E+00
  0.59920024E+00  0.63208702E-01  0.16450452E+00
  0.77019114E+00  0.86370044E-01  0.99388128E+00
  0.90634385E+00  0.22386678E+00  0.99918241E+00
  0.72608835E+00  0.26624416E+00  0.15899084E+00
  0.92677210E+00  0.64682953E-01  0.16693423E+00
  0.11959334E+00  0.42542771E+00  0.99598855E+00
  0.24359425E+00  0.55799767E+00  0.17720523E-02
  0.71237945E-01  0.59687213E+00  0.15358846E+00
  0.28189489E+00  0.40413233E+00  0.17473341E+00
  0.44793525E+00  0.43221279E+00  0.99917042E+00
  0.56734156E+00  0.57189006E+00  0.98939656E+00
  0.39815023E+00  0.61094130E+00  0.16927104E+00
  0.60341849E+00  0.41128763E+00  0.16662639E+00
  0.77601412E+00  0.42602988E+00  0.99716819E+00
  0.90143231E+00  0.54950657E+00  0.46802498E-02
  0.73397702E+00  0.58779145E+00  0.15479004E+00
  0.95135409E+00  0.40722711E+00  0.17508926E+00
  0.10042063E+00  0.73995604E+00  0.95989397E+00
  0.23660358E+00  0.90506799E+00  0.99660317E+00
  0.47009735E-01  0.92883256E+00  0.16640263E+00
  0.26967809E+00  0.73617344E+00  0.16689426E+00
  0.44616561E+00  0.74810527E+00  0.98980856E+00
  0.55728049E+00  0.90358423E+00  0.98019930E+00
  0.39073708E+00  0.92725950E+00  0.15211730E+00
  0.60669197E+00  0.73499164E+00  0.17095474E+00
  0.78604961E+00  0.76085967E+00  0.11776927E-01
  0.90600663E+00  0.89403158E+00  0.98903973E+00
  0.74008169E+00  0.94023811E+00  0.18076890E+00
  0.95397632E+00  0.73504984E+00  0.15636337E+00
  0.93414932E-01  0.11185103E+00  0.33546815E+00
  0.24619332E+00  0.22608978E+00  0.33044149E+00
  0.68179160E-01  0.26729105E+00  0.51330876E+00
  0.27448937E+00  0.69203801E-01  0.48310319E+00
  0.45708315E+00  0.10337342E+00  0.32898855E+00
  0.56897706E+00  0.23799615E+00  0.33394570E+00
  0.39826466E+00  0.26202013E+00  0.49635273E+00
  0.59045048E+00  0.58063274E-01  0.51068277E+00
  0.77641128E+00  0.89381151E-01  0.34483672E+00
  0.89180920E+00  0.22440622E+00  0.34367963E+00
  0.72140174E+00  0.27230216E+00  0.49497768E+00
  0.93113934E+00  0.69423694E-01  0.51231478E+00
  0.11159392E+00  0.42476187E+00  0.33575388E+00
  0.22435161E+00  0.57452948E+00  0.33755805E+00
  0.71165941E-01  0.60468942E+00  0.49535546E+00
  0.26357569E+00  0.38249686E+00  0.49070676E+00
  0.42863204E+00  0.44834186E+00  0.33468515E+00
  0.56998196E+00  0.56456346E+00  0.33276250E+00
  0.39352428E+00  0.60952904E+00  0.48795917E+00
  0.59561858E+00  0.40411663E+00  0.49956058E+00
  0.77487531E+00  0.42272065E+00  0.34583560E+00
  0.90021071E+00  0.56033830E+00  0.32822502E+00
  0.73304538E+00  0.60441832E+00  0.50379809E+00
  0.94306851E+00  0.40370759E+00  0.51815947E+00
  0.99763983E-01  0.76114225E+00  0.34196470E+00
  0.22780884E+00  0.91071268E+00  0.32840377E+00
  0.58224793E-01  0.93305165E+00  0.48690262E+00
  0.27355874E+00  0.75224554E+00  0.50584599E+00
  0.44023093E+00  0.77465360E+00  0.33260850E+00
  0.56206705E+00  0.90622891E+00  0.32531039E+00
  0.40447897E+00  0.93592675E+00  0.48762845E+00
  0.62083202E+00  0.74469645E+00  0.50364770E+00
  0.79910046E+00  0.75856098E+00  0.33366336E+00
  0.88572811E+00  0.89403280E+00  0.33123198E+00
  0.72728184E+00  0.93104126E+00  0.51256185E+00
  0.95251138E+00  0.74080402E+00  0.50197501E+00
  0.10069655E+00  0.98486691E-01  0.66639600E+00
  0.23138844E+00  0.22798414E+00  0.66709842E+00
  0.67188506E-01  0.27007388E+00  0.84737496E+00
  0.27333478E+00  0.68818994E-01  0.83569222E+00
  0.43201432E+00  0.11096459E+00  0.67088371E+00
  0.56607220E+00  0.22924349E+00  0.66699945E+00
  0.40787705E+00  0.27818153E+00  0.82494228E+00
  0.60519322E+00  0.56474431E-01  0.85447404E+00
  0.77669877E+00  0.10333766E+00  0.67771623E+00
  0.90667901E+00  0.23686576E+00  0.67004749E+00
  0.72051397E+00  0.26656343E+00  0.83492683E+00
  0.93834471E+00  0.69524001E-01  0.82743230E+00
  0.94915681E-01  0.43073975E+00  0.65569491E+00
  0.23771076E+00  0.55649961E+00  0.65466555E+00
  0.63143400E-01  0.58043738E+00  0.83234527E+00
  0.27224207E+00  0.40340644E+00  0.83148173E+00
  0.43454982E+00  0.44544676E+00  0.67313545E+00
  0.57427490E+00  0.56892529E+00  0.66810472E+00
  0.39840526E+00  0.60593015E+00  0.82194793E+00
  0.61100864E+00  0.40829958E+00  0.83103277E+00
  0.75720441E+00  0.44122698E+00  0.65702471E+00
  0.90423773E+00  0.56137884E+00  0.65954602E+00
  0.73010488E+00  0.59067334E+00  0.83776255E+00
  0.93434584E+00  0.40022142E+00  0.83157887E+00
  0.12177316E+00  0.74964330E+00  0.67027135E+00
  0.21616913E+00  0.91321863E+00  0.67300516E+00
  0.69522343E-01  0.94479051E+00  0.85718308E+00
  0.26893919E+00  0.73263402E+00  0.82661839E+00
  0.43894808E+00  0.76564396E+00  0.66246456E+00
  0.55695877E+00  0.90831625E+00  0.67194209E+00
  0.39602744E+00  0.93549768E+00  0.82189388E+00
  0.60539969E+00  0.72054110E+00  0.84784615E+00
  0.76987072E+00  0.75801994E+00  0.66983044E+00
  0.90957870E+00  0.87706432E+00  0.67254026E+00
  0.74118278E+00  0.93078797E+00  0.83233717E+00
  0.93594217E+00  0.71764107E+00  0.84057017E+00
  0.17393644E+00  0.95151332E+00  0.14678753E+00
 -0.89311521E-04  0.87817239E-04 -0.27464647E-04
  0.24842722E-04  0.18945421E-03  0.23250846E-03
 -0.65499565E-04  0.30839559E-03 -0.71208293E-04
  0.93820924E-04  0.27063345E-03  0.50247890E-03
  0.24432814E-03 -0.12560751E-04 -0.28562450E-03
  0.10841324E-03  0.13823179E-03  0.31830989E-03
 -0.82671217E-05  0.22113747E-04 -0.30665422E-03
 -0.23301848E-04 -0.20304469E-05 -0.23681906E-03
  0.45239419E-03  0.47638191E-04  0.10867710E-03
  0.15452922E-03  0.98101380E-04  0.83063980E-04
  0.85573069E-04  0.75968441E-05  0.14027538E-03
 -0.41905634E-03  0.14103094E-03  0.14508555E-03
 -0.20753434E-03  0.33460076E-03  0.17624010E-03
 -0.28078020E-03 -0.81734847E-04 -0.77941915E-04
  0.27935083E-04  0.19504230E-04 -0.39872011E-03
  0.32985022E-04 -0.12824721E-04  0.25470473E-03
 -0.25736853E-03 -0.20315775E-03  0.24839966E-03
  0.21855286E-03 -0.25084246E-04 -0.11272536E-03
 -0.14999926E-03 -0.21814408E-03 -0.18294693E-03
 -0.96551782E-04 -0.21499454E-04 -0.99174927E-04
 -0.17586049E-03 -0.18934455E-03  0.33519757E-03
  0.53145068E-04 -0.12736996E-03 -0.39618263E-03
 -0.55029188E-04 -0.15563155E-03  0.18602862E-03
 -0.14983984E-03  0.24158486E-03 -0.24053079E-04
  0.31979061E-05 -0.20531067E-03 -0.12294972E-03
  0.19972168E-03 -0.12419699E-03  0.50171176E-04
 -0.34866116E-04 -0.34671471E-03  0.16424822E-03
  0.25294520E-04 -0.11946606E-04 -0.36136308E-03
  0.21609017E-03  0.44994981E-05  0.26539771E-03
 -0.94326544E-04  0.10902674E-03 -0.76518788E-04
  0.27169238E-04  0.62404198E-04 -0.13048896E-03
  0.11028343E-03 -0.86546922E-04  0.97821348E-04
  0.17143367E-03  0.23490136E-03  0.11062944E-03
 -0.34616361E-04  0.75244432E-04  0.64206689E-04
 -0.85864826E-04 -0.27318474E-03  0.17937341E-03
 -0.18716595E-03  0.14599043E-03  0.27267429E-03
  0.27565886E-04  0.73464558E-04  0.31757631E-03
 -0.13111737E-03 -0.56815069E-04 -0.27690437E-03
 -0.83038213E-04 -0.16456163E-03 -0.46001570E-03
 -0.13910839E-03 -0.15705839E-03  0.47059768E-04
 -0.27841907E-04  0.38369188E-04 -0.92110494E-04
 -0.96497347E-04 -0.67840050E-04  0.25531360E-04
  0.35393168E-03 -0.23861896E-03 -0.78178718E-04
  0.19726699E-03 -0.36919276E-04  0.80975095E-04
  0.20414036E-04 -0.35898989E-04  0.96734340E-04
 -0.11691529E-03  0.20680192E-03 -0.11218431E-03
 -0.18003829E-03 -0.65981675E-04  0.18212534E-04
 -0.11048327E-03  0.20279039E-03 -0.29184482E-03
  0.24140925E-03  0.93721666E-04 -0.14101939E-04
  0.17499514E-03  0.91892076E-04 -0.52990239E-04
  0.23098720E-04 -0.58963911E-04  0.43300777E-03
 -0.15202944E-03 -0.22598096E-03  0.12397166E-03
  0.11030169E-03  0.79599262E-04 -0.16541823E-03
 -0.71974256E-05 -0.14683255E-03 -0.13211997E-03
  0.16871202E-03  0.17420185E-03 -0.62490171E-03
 -0.36173717E-03 -0.10049595E-03 -0.72818341E-03
  0.15688849E-03  0.34323008E-03 -0.52348289E-03
  0.32248896E-03  0.16332674E-03 -0.94655180E-03
  0.64204700E-04 -0.11347730E-03  0.26621431E-04
 -0.33021771E-03  0.57388537E-03 -0.43148613E-03
  0.37949671E-03 -0.82398311E-03 -0.41640917E-03
  0.36127596E-03 -0.15425890E-03 -0.84054576E-03
  0.12700068E-03  0.25699013E-03  0.12651281E-02
  0.19052476E-03 -0.17231471E-03 -0.24910762E-03
 -0.27909407E-04 -0.21907616E-03  0.51472127E-03
 -0.51146566E-03 -0.19458381E-03 -0.10083677E-04
  0.25332159E-03  0.53669693E-03 -0.89401773E-03
  0.22746735E-04  0.14290546E-02  0.12065195E-03
 -0.11114207E-03  0.85349065E-04 -0.14343558E-02
  0.16205681E-03  0.27682568E-03  0.10422225E-02
  0.34691318E-03  0.48134967E-03  0.38276266E-03
  0.21537833E-03 -0.31126599E-03  0.11662815E-03
 -0.24518138E-03 -0.40639445E-03 -0.20598053E-03
 -0.22301675E-04 -0.51884427E-04  0.46514266E-03