CONTCAR-qvdai                           
   1.00000000000000     
    14.4414740842709328   -0.0007474433111926    0.0000000000000000
    -0.0007474431454255   14.4414804789008961    0.0000000000000000
     0.0000000000000000    0.0000000000000000    9.7223100151145676
   Sn   Ti   O 
    53     1   108
Direct
  0.0000860053071535  0.9892743086510766  0.9934527627278199
  0.1680494071071041  0.1695687338920532  0.1809152702816222
  0.4961754322469407  0.1739876640622729  0.1829529298461540
  0.6687913506989659  0.0081424426819235  0.0043175560758973
  0.8387403438134416  0.1675658456553830  0.1646805511151828
  0.0085841976152829  0.3331191690586138  0.9967647032400296
  0.1737478420339239  0.5070170789488730  0.1588400197856621
  0.3243663262931853  0.3358682121190550  0.0051903481538400
  0.4966055318098413  0.4937009795178415  0.1730017925629122
  0.6706030431213115  0.3283761059091724  0.0054763802741170
  0.8339505581185637  0.4969099047311921  0.1576928346724044
  0.9934471972849521  0.6726375738851262  0.9935539552385159
  0.1741850954891413  0.8331905011301048  0.1624868799854858
  0.3457001034573246  0.6683782223502204  0.9980804045119049
  0.5090952680983297  0.8369377206176449  0.1612666203046982
  0.6625836731813394  0.6610173064583672  0.9950092655434114
  0.8224986161898400  0.8286663569695796  0.1652783640837372
  0.9948233510606723  0.9982940230787367  0.3367061016117241
  0.1681665140508616  0.1561021756830692  0.5042706653807615
  0.3381154701666336  0.0042092354392686  0.3262886971253297
  0.4976980650018172  0.1739467948297834  0.5119993143412587
  0.6596195640526278  0.0067655276193488  0.3249083072602394
  0.8378503635016357  0.1664902821938174  0.5028670545328581
  0.0113266637333498  0.3412181907006938  0.3264140542008935
  0.1600411859891427  0.5087865706145929  0.4967094176877563
  0.3392323951559302  0.3347907389980853  0.3448405924436133
  0.5005401657930384  0.5024344111529760  0.5070826243235197
  0.6733716431127307  0.3276694882436866  0.3422458662058522
  0.8463666631042310  0.5017018850049699  0.4939714949084734
  0.9905976839642986  0.6674819077229811  0.3222338484419696
  0.1685446532174112  0.8338137392494914  0.4923533414683006
  0.3403207925127483  0.6712086546664566  0.3256834512646202
  0.4947804352712838  0.8427046613386092  0.4999979682248623
  0.6675722615418915  0.6632127512344531  0.3262681210324204
  0.8262789900248665  0.8335114327277857  0.4983268878638676
  0.9948100086240955  0.9891628223227089  0.6712838707817124
  0.1650236027302495  0.1596690990278010  0.8444385506051324
  0.3358423417326041  0.9931664326492421  0.6653728216144041
  0.4868665950471841  0.1619175845480039  0.8502906283506340
  0.6625452013617408  0.0113028785287923  0.6652030634324911
  0.8324518563704585  0.1649427588729707  0.8430175074764454
  0.9949987984377116  0.3288192615014920  0.6637431937470166
  0.1616773033684561  0.4979246422074406  0.8239450322074260
  0.3318722812018199  0.3270164999434239  0.6723010539169009
  0.5024764349066155  0.4921288678993185  0.8409492150396684
  0.6646539331112291  0.3414361473625921  0.6740679870138501
  0.8339616802510719  0.4970710362171737  0.8270749258768518
  0.0060907271688994  0.6676310607521186  0.6621773344661476
  0.1712686723802073  0.8297170806125502  0.8231404999195684
  0.3297316536636945  0.6662690550760196  0.6602281689010105
  0.5056686078992657  0.8292629072629838  0.8313389880335683
  0.6675474913442339  0.6687407882776818  0.6634439767894891
  0.8180067093585857  0.8362860041538076  0.8263126039030609
  0.3319981132577320  0.9927799645966369  0.0106670903331670
  0.0921896342865352  0.1053920587340808  0.0110888909301541
  0.2205599991506611  0.2372165007303761  0.0116095154425234
  0.0736693381390003  0.2847939090955418  0.1734098391606652
  0.2746436750592392  0.0644641111528582  0.1604710009554783
  0.4218805988848341  0.1002740063795902  0.0185762828562736
  0.5678713601059772  0.2323166206766879  0.0090163430785743
  0.3961748744960171  0.2726855140867416  0.1687246441283913
  0.5912351671701845  0.0655881123351077  0.1746753768173729
  0.7703733567439203  0.1083480799036011  0.0020069488321920
  0.9101598914111140  0.2282923844893208  0.9994819196277754
  0.7491193367636134  0.2874405258107744  0.1682226383900051
  0.9282013579737849  0.0557516329529015  0.1675395966448329
  0.1036986500158420  0.4421130679034617  0.9972076304151121
  0.2353208930239010  0.5701583364496972  0.9865201708688979
  0.0613533414364454  0.6119435089450955  0.1525750634484387
  0.2665862139441753  0.3966711284901802  0.1883406787638084
  0.4247236370520735  0.4500381618419022  0.0139336611064545
  0.5687287407899441  0.5510247478077857  0.0003795467323522
  0.4005960191299839  0.5928891131687470  0.1686303371896702
  0.6035653623569920  0.3954416080759599  0.1932394597368479
  0.7602529156268437  0.4395767183908892  0.9980441061389411
  0.8935499885655910  0.5614745735078936  0.9945304872607782
  0.7364565693694319  0.6111305615166053  0.1574990480500831
  0.9379678292141876  0.3993276465301830  0.1519195466895179
  0.1028192621500979  0.7748907026958493  0.0024534363858710
  0.2427681025019891  0.8980666841412311  0.9876803952281291
  0.0626740271671105  0.9257484584306250  0.1769391585416049
  0.2786079601499339  0.7352737045918668  0.1648365410440639
  0.4435327909373645  0.7719095535721828  0.9989666322895273
  0.5708800911993500  0.8910646296579896  0.9881403965766989
  0.4030680326422947  0.9348806669745661  0.1566483977169525
  0.5873354626680320  0.7165869597550184  0.1723416125021389
  0.7368950164682943  0.7888164630837924  0.0036947972405038
  0.8987480263801512  0.8795574218686240  0.9899664858334754
  0.7289002498344626  0.9433062442983969  0.1638904942755123
  0.9129469978836947  0.7180604899588999  0.1547559017529223
  0.1089211987875249  0.0789453063008469  0.3219132986569470
  0.2309802430309231  0.2292501835327790  0.3393671486956530
  0.0594775732982586  0.2669109946259834  0.4911434152757027
  0.2583229063024495  0.0469980303857863  0.4895881732850097
  0.4245652916315559  0.1235495272118442  0.3409500471226721
  0.5754864470915093  0.2225960258508439  0.3414077824636820
  0.3950596267931645  0.2685565125061895  0.5013147319225998
  0.5920776649454907  0.0661031940114798  0.5047729566767668
  0.7724402445420728  0.1001950713360225  0.3323914459292090
  0.9030713811142508  0.2282531308038002  0.3300156429578812
  0.7373574968444563  0.2641899367913534  0.5299140511111744
  0.9379426149177869  0.0617526638558472  0.5018322563386137
  0.1036166702286753  0.4525078984919614  0.3223595441385690
  0.2273621444554001  0.5809846712183412  0.3266014535734833
  0.0641126158252599  0.6074840448803139  0.4977063273790084
  0.2674105607133093  0.4090281993882747  0.5064159315963148
  0.4277900734066436  0.4456637691100521  0.3560014122090344
  0.5727469915191595  0.5574019169498752  0.3416926767464842
  0.4088977293168679  0.6180839153310371  0.4976262082411353
  0.5973585463999564  0.3968810334226526  0.4974395065566376
  0.7708090946153834  0.4400143880584323  0.3437969101508739
  0.9135728857331737  0.5455383837314332  0.3282361530602798
  0.7449670564133682  0.6167272550317009  0.4932012194212345
  0.9343760261247478  0.3910435820431634  0.4844518642349542
  0.1015213695795056  0.7674742982173991  0.3136121039336645
  0.2507687922207737  0.8895509974403926  0.3205828748952423
  0.0598065809837057  0.9336373541730949  0.5056452403591687
  0.2601005825293308  0.7254032174979510  0.5033357501715744
  0.4401535184360604  0.7726252953728141  0.3312160781670134
  0.5679144238775943  0.8947836583711037  0.3314846564857600
  0.4124407488712641  0.9506838967665057  0.4907603095800063
  0.6000544827253681  0.7291286741972539  0.4978675012576240
  0.7606341931724231  0.7765529497289593  0.3320710245288457
  0.8958155080105960  0.9008622574781314  0.3323659118530173
  0.7340259110205533  0.9561933602719733  0.5006114127230124
  0.9315828164734729  0.7343511123279309  0.4955803838867445
  0.0939797030014020  0.0931125835366857  0.6701781077436071
  0.2356011446128101  0.2232796980350987  0.6766700393529629
  0.0700375606002819  0.2741782592538645  0.8314038282547670
  0.2598976423194033  0.0509219268191369  0.8352116674520789
  0.4188911455173785  0.1160225199454053  0.6719237025967726
  0.5671584071903463  0.2303825614932831  0.6903776920580089
  0.4086325685643526  0.2772755537704151  0.8597445368380745
  0.5991592932998161  0.0731688933975115  0.8489399587807210
  0.7680264824664530  0.1017918083998104  0.6642362450071811
  0.9048761504415551  0.2169868700798899  0.6745210107754979
  0.7362756786946798  0.2664563918639836  0.8497871744368549
  0.9246929554371598  0.0486157254931435  0.8453306919150390
  0.0877802659383986  0.4405060759389007  0.6484574555528123
  0.2299808655413172  0.5632596760273041  0.6655854090074631
  0.0616336995473870  0.6047753445581682  0.8329694633653260
  0.2686364360509318  0.3903633608715530  0.8336911400204829
  0.4491836132471593  0.4196352504235688  0.6739325028985401
  0.5822516620995040  0.5466239429873234  0.6813114813638531
  0.4015581763691412  0.6010172278441621  0.8272418107548267
  0.5977435298368599  0.3867927283442897  0.8446274769153209
  0.7772405897165912  0.4294595302784843  0.6643115365702348
  0.9123978615029188  0.5497789300698332  0.6591984234336168
  0.7387278396203284  0.6098600578242762  0.8312801377666357
  0.9276037607271387  0.3962760140325704  0.8279614859724109
  0.0937350843222762  0.7783864287003555  0.6560533997929857
  0.2349614118854331  0.8887931312735974  0.6444013237475151
  0.0724814244761038  0.9316249176955806  0.8291034555385728
  0.2773879951508014  0.7299750024406659  0.8352286012820593
  0.4280398018697288  0.7856318012352671  0.6639018469909456
  0.5644408419676626  0.9008696457700578  0.6523976422659489
  0.3907059187573783  0.9373234371591510  0.8405598666973195
  0.5913517792776487  0.7159244794470249  0.8212214453033019
  0.7627462253911325  0.7719790581978708  0.6556067744493458
  0.8968277980530186  0.8956886730583149  0.6749259874215852
  0.7309587085305758  0.9486251785354693  0.8363675899947007
  0.9273986966117698  0.7252983915863932  0.8169840813157203
 
  0.57221202E-03 -0.20102397E-03  0.21553169E-02
  0.10392788E-02  0.27767126E-02 -0.81670639E-04
 -0.18872308E-02 -0.61496859E-03 -0.61024779E-03
 -0.13998017E-02  0.22947629E-02 -0.32288282E-03
 -0.63434172E-03 -0.11602428E-02 -0.13753300E-02
 -0.94389117E-03  0.83904902E-03 -0.33542108E-02
  0.19691593E-02 -0.25764735E-02  0.18971716E-02
  0.19933739E-02  0.35011604E-03 -0.20246979E-02
  0.98480584E-03  0.26594888E-02 -0.14835518E-02
 -0.35460464E-02  0.56393045E-03  0.21102825E-02
  0.84321701E-03 -0.51863153E-03 -0.17146315E-02
 -0.21966857E-02  0.18510790E-02  0.28608206E-02
 -0.26698318E-02 -0.40732856E-02  0.41868433E-02
 -0.14914313E-02  0.34450717E-03  0.16783682E-02
 -0.12378788E-02  0.37997480E-04  0.25670532E-02
  0.47730062E-02 -0.21947235E-03 -0.54706395E-03
  0.42507471E-03 -0.16690341E-02 -0.22929233E-03
  0.50444411E-03  0.17972798E-02 -0.13523738E-02
 -0.19626464E-02 -0.26903583E-02  0.17881619E-02
 -0.21403653E-02 -0.29723666E-02 -0.16728654E-02
  0.17393866E-03  0.22566175E-02  0.45543363E-03
  0.35649728E-02  0.13366541E-02  0.13340781E-02
 -0.25392672E-02  0.17976392E-02 -0.43169808E-03
 -0.25375827E-02 -0.14340289E-02 -0.88253337E-03
  0.19082876E-04 -0.43741924E-02 -0.59756229E-03
  0.19069799E-02 -0.45937799E-03  0.11285595E-03
 -0.91389017E-03  0.19516483E-02 -0.32632211E-03
 -0.80849596E-03  0.71610449E-03 -0.11864355E-02
 -0.32112358E-02  0.20263558E-02  0.98890408E-03
  0.86225711E-03  0.26851768E-02  0.11957692E-02
  0.15062035E-02  0.31805395E-02  0.14972714E-02
 -0.23838476E-02  0.19547448E-03  0.28437555E-02
  0.96355616E-03 -0.88162903E-03 -0.88870452E-03
  0.15507099E-02  0.80225699E-03 -0.13096342E-02
  0.31988422E-02  0.14593084E-02  0.48092757E-03
  0.28080441E-02  0.72439562E-03 -0.72654807E-03
  0.81575652E-03 -0.26287728E-02 -0.11476478E-02
  0.11941161E-02 -0.33473302E-02 -0.16278254E-02
 -0.25701030E-02  0.17793355E-02 -0.35420324E-02
 -0.19334422E-03 -0.10600713E-02  0.84932614E-03
  0.25691279E-03  0.31602737E-02 -0.68134550E-02
  0.14670880E-02 -0.90621037E-03  0.44278678E-03
  0.69851522E-03  0.36110655E-03 -0.18383633E-02
 -0.11570467E-02  0.59022638E-03 -0.28380830E-02
 -0.46298514E-02 -0.26769179E-02 -0.23216271E-02
 -0.45822302E-03 -0.31847389E-02 -0.18016864E-02
  0.10230498E-03  0.48531170E-03 -0.75799784E-03
  0.42885541E-03  0.90865424E-03  0.32879549E-02
  0.21276569E-02 -0.15994334E-02  0.21559991E-02
 -0.12350561E-02  0.12621953E-02  0.11347290E-02
  0.14369169E-02  0.13090932E-02  0.17608935E-02
  0.28212761E-03  0.56879787E-03 -0.23722224E-02
  0.63924757E-04 -0.13204576E-02  0.12900370E-02
  0.26645600E-02  0.49644497E-04 -0.96588251E-03
 -0.38890963E-02  0.50071953E-02  0.22229091E-02
 -0.10050358E-02  0.23690559E-03 -0.38025015E-02
 -0.91313245E-03 -0.12807120E-02  0.52387611E-02
 -0.66400418E-02  0.18711392E-02 -0.18041604E-02
  0.14720983E-02  0.44271621E-02 -0.12230538E-02
  0.53606721E-02 -0.58301046E-02  0.12045002E-02
 -0.22208786E-03  0.28544261E-02  0.37650225E-02
 -0.80650357E-02 -0.63770763E-02 -0.73522617E-02
  0.27834321E-02  0.89657065E-03 -0.20874471E-02
 -0.10847800E-02  0.64258903E-02  0.69195987E-02
 -0.82353573E-02 -0.40979293E-02 -0.76452337E-03
 -0.37680432E-02  0.47390448E-02 -0.15623931E-04
 -0.11007968E-01 -0.15848023E-02  0.94877222E-02
  0.32657978E-02 -0.54033109E-03 -0.42339390E-02
 -0.59018286E-02  0.69837536E-03  0.49051569E-02
  0.65310370E-02 -0.24798001E-03 -0.62702401E-03
  0.64569629E-02 -0.11774514E-01  0.52296558E-03
  0.80746665E-02  0.10123745E-01 -0.59957606E-02
  0.50960304E-02 -0.34117289E-02 -0.25666495E-02
 -0.12470600E-01 -0.60169313E-02 -0.87648296E-02
 -0.38495423E-02 -0.11490213E-01 -0.78380914E-02
 -0.34006710E-02  0.38346327E-02  0.34423108E-02
 -0.12699456E-03 -0.81407757E-03 -0.29449244E-02
  0.16078356E-03 -0.86126104E-02 -0.29853261E-02
 -0.33813071E-03  0.21494037E-04 -0.70461367E-02
 -0.35337862E-02 -0.38548612E-02  0.10410887E-01
 -0.10380714E-01 -0.26769540E-02  0.38553200E-02
  0.12013001E-02 -0.30441712E-02  0.26614853E-04
 -0.36093694E-02 -0.85451136E-02  0.66331781E-02
  0.16347053E-02  0.21953859E-02  0.84472621E-02
 -0.40427218E-02 -0.91375848E-03  0.29417783E-02
  0.96409359E-02  0.61334358E-02  0.26830560E-02
  0.82844670E-02  0.51615103E-02  0.81241207E-02
  0.65101463E-03 -0.15042411E-02  0.11426122E-01
  0.98906241E-03  0.60225373E-03  0.12644459E-01
  0.62114442E-02  0.27783126E-02  0.88391154E-03
 -0.36538662E-02  0.19785297E-02 -0.21005326E-02
 -0.98059765E-02  0.41293912E-02  0.47395023E-03
 -0.10863357E-02  0.10118235E-01 -0.50807605E-02
 -0.36439950E-02 -0.71506741E-02  0.29912580E-03
 -0.66581259E-02 -0.11225775E-01 -0.62844620E-03
  0.12492949E-02  0.67519611E-02  0.29413977E-02
  0.11556298E-02  0.11986023E-02  0.41258529E-02
 -0.29361160E-02 -0.82275628E-02  0.18406291E-02
  0.85320063E-03  0.19754318E-02 -0.36123028E-02
  0.91616787E-02 -0.87421131E-02  0.81584908E-02
 -0.53510299E-02  0.88455695E-02  0.14785241E-02
  0.58697277E-02  0.22881607E-03  0.39798143E-03
  0.80550308E-02 -0.31820154E-02  0.44709630E-02
  0.23778527E-03  0.32407809E-02 -0.56660615E-03
 -0.12364382E-02  0.12713988E-02 -0.51931965E-02
 -0.52727331E-02  0.19772894E-02  0.58015522E-02
  0.34900912E-02  0.11534705E-02  0.11862124E-02
  0.18258520E-02  0.51344287E-02  0.10121535E-01
  0.90865629E-02 -0.39756318E-02 -0.13750539E-02
  0.11596960E-01  0.12279909E-02 -0.21571393E-02
  0.27678866E-02 -0.91114491E-02  0.10403090E-02
  0.16805791E-02 -0.40494733E-02 -0.10765892E-01
 -0.17990856E-02 -0.35955154E-02  0.15791189E-02
 -0.64149085E-02 -0.46076823E-03  0.10287828E-01
  0.16475168E-02 -0.65410521E-02  0.36391544E-02
 -0.41689058E-02  0.57755760E-02  0.36989134E-02
 -0.63097829E-02  0.34585590E-03 -0.10929796E-01
  0.93918423E-02 -0.99019870E-03  0.58221269E-03
  0.73424553E-02 -0.79364501E-02  0.27753949E-02
  0.20742361E-04 -0.38300434E-02 -0.50837066E-02
  0.24863674E-02 -0.39060833E-02 -0.80144203E-02
 -0.54181685E-02 -0.63843232E-02  0.79054869E-02
  0.51619130E-02 -0.61033803E-02  0.90251200E-02
  0.17575099E-02  0.15387179E-02  0.10914219E-02
 -0.19161661E-02  0.22264638E-02 -0.62641819E-02
 -0.43137782E-02  0.12118314E-02  0.43899512E-03
  0.49250077E-02 -0.94834843E-02 -0.67368227E-02
 -0.48875426E-02  0.81829211E-02  0.77084703E-02
  0.60822836E-02 -0.32126496E-02 -0.60963719E-02
  0.44520384E-02  0.75198444E-02  0.58796528E-02
 -0.94647602E-03 -0.80216621E-02 -0.30497791E-02
 -0.53280540E-02  0.14475585E-02  0.76193562E-03
  0.16628097E-02  0.68103608E-02 -0.51390130E-02
  0.69339529E-02  0.88094564E-02 -0.14060586E-01
 -0.91851108E-02  0.98625248E-03  0.45615009E-02
 -0.10328411E-01  0.37736088E-02  0.79702347E-02
 -0.78340718E-02  0.10002537E-03 -0.38247726E-03
  0.44900858E-02  0.33670455E-03 -0.29320240E-03
  0.91704302E-02 -0.30351042E-02  0.84705195E-02
 -0.30115886E-02 -0.48683385E-02 -0.29361670E-03
  0.31374747E-02  0.10535898E-01  0.48363074E-02
  0.12817579E-02 -0.14062582E-01 -0.11340202E-02
 -0.74671285E-02  0.41339983E-02 -0.10594621E-02
  0.40476333E-02  0.26561143E-02 -0.84675913E-03
 -0.70737573E-02  0.52485597E-02  0.20378099E-02
  0.32463237E-02  0.54678107E-02 -0.71088767E-02
 -0.12042233E-02  0.88507248E-02  0.84513547E-02
 -0.75755039E-02  0.11648173E-01 -0.34177485E-02
  0.58009157E-02  0.32909557E-02 -0.16873156E-02
 -0.21756071E-02  0.97596099E-03  0.33836103E-02
  0.55550580E-02 -0.63448583E-02  0.27208395E-02
 -0.33561584E-03  0.14200575E-02  0.25222948E-03
  0.11895422E-01  0.34742496E-03 -0.64747083E-02
 -0.37626948E-02 -0.45717464E-02  0.27869488E-02
 -0.88999060E-02 -0.26955805E-03 -0.44333181E-02
  0.30484910E-02  0.10404450E-01 -0.58533385E-02
  0.29654809E-02 -0.10728302E-01 -0.69620975E-02
  0.54247531E-02 -0.21955768E-02 -0.52866592E-03
  0.36025431E-02  0.71621074E-03  0.14348179E-01
  0.15886934E-01  0.54707492E-03 -0.37877391E-02
 -0.92437825E-04 -0.27288274E-02 -0.61353342E-02
  0.96132396E-02  0.62855607E-02 -0.40884033E-03
 
           1
   1.00000000000000     
  0.34134442E+01  0.19755495E-01 -0.11553460E-03  0.00000000E+00
  0.12562741E-03  0.98926039E+00  0.99367445E+00
  0.16812138E+00  0.16976101E+00  0.18090687E+00
  0.49604475E+00  0.17394507E+00  0.18289016E+00
  0.66869443E+00  0.83013385E-02  0.42843456E-02
  0.83869641E+00  0.16748550E+00  0.16453909E+00
  0.85188409E-02  0.33317727E+00  0.99641970E+00
  0.17388419E+00  0.50683868E+00  0.15903516E+00
  0.32450436E+00  0.33589246E+00  0.49820954E-02
  0.49667373E+00  0.49388514E+00  0.17284920E+00
  0.67035750E+00  0.32841514E+00  0.56934359E-02
  0.83400894E+00  0.49687400E+00  0.15751647E+00
  0.99329509E+00  0.67276574E+00  0.99384821E+00
  0.17400021E+00  0.83290844E+00  0.16291752E+00
  0.34559683E+00  0.66840207E+00  0.99825304E+00
  0.50900955E+00  0.83694035E+00  0.16153066E+00
  0.66291418E+00  0.66100213E+00  0.99495300E+00
  0.82252804E+00  0.82855079E+00  0.16525478E+00
  0.99485829E+00  0.99841848E+00  0.33656700E+00
  0.16803060E+00  0.15591587E+00  0.50445459E+00
  0.33796725E+00  0.40034063E-02  0.32611663E+00
  0.49771012E+00  0.17410305E+00  0.51204616E+00
  0.65986643E+00  0.68580970E-02  0.32504553E+00
  0.83767454E+00  0.16661475E+00  0.50282265E+00
  0.11150944E-01  0.34111888E+00  0.32632328E+00
  0.16004249E+00  0.50848368E+00  0.49664795E+00
  0.33936444E+00  0.33475894E+00  0.34485220E+00
  0.50047689E+00  0.50256955E+00  0.50704906E+00
  0.67331566E+00  0.32771907E+00  0.34212383E+00
  0.84614431E+00  0.50184219E+00  0.49407321E+00
  0.99065740E+00  0.66766785E+00  0.32235684E+00
  0.16864896E+00  0.83403398E+00  0.49250735E+00
  0.34015572E+00  0.67122218E+00  0.32597595E+00
  0.49484715E+00  0.84264362E+00  0.49990656E+00
  0.66767964E+00  0.66326831E+00  0.32613342E+00
  0.82650050E+00  0.83361249E+00  0.49837635E+00
  0.99500445E+00  0.98921299E+00  0.67120914E+00
  0.16508008E+00  0.15948707E+00  0.84432051E+00
  0.33592502E+00  0.99293465E+00  0.66520539E+00
  0.48668863E+00  0.16204079E+00  0.84992631E+00
  0.66253181E+00  0.11229473E-01  0.66529042E+00
  0.83246966E+00  0.16516159E+00  0.84231670E+00
  0.99510038E+00  0.32875652E+00  0.66378874E+00
  0.16172567E+00  0.49794965E+00  0.82375595E+00
  0.33179216E+00  0.32705737E+00  0.67200914E+00
  0.50215583E+00  0.49194349E+00  0.84071042E+00
  0.66462219E+00  0.34121562E+00  0.67388267E+00
  0.83396877E+00  0.49710464E+00  0.82699696E+00
  0.61204265E-02  0.66769398E+00  0.66251552E+00
  0.17141600E+00  0.82960634E+00  0.82336226E+00
  0.32964614E+00  0.66635645E+00  0.66034488E+00
  0.50576811E+00  0.82935356E+00  0.83152011E+00
  0.66756703E+00  0.66878018E+00  0.66319998E+00
  0.81801113E+00  0.83619457E+00  0.82644529E+00
  0.33218262E+00  0.99278341E+00  0.10567743E-01
  0.91920352E-01  0.10573877E+00  0.11317531E-01
  0.22049041E+00  0.23723290E+00  0.11218405E-01
  0.73606104E-01  0.28470522E+00  0.17394868E+00
  0.27418389E+00  0.64593654E-01  0.16028543E+00
  0.42198255E+00  0.10058057E+00  0.18450484E-01
  0.56824254E+00  0.23191293E+00  0.91402334E-02
  0.39615951E+00  0.27288317E+00  0.16911190E+00
  0.59067668E+00  0.65146503E-01  0.17391915E+00
  0.77056610E+00  0.10841017E+00  0.17922419E-02
  0.91008480E+00  0.22873734E+00  0.19364335E-03
  0.74854906E+00  0.28715674E+00  0.16814400E+00
  0.92794046E+00  0.56079775E-01  0.16753799E+00
  0.10293640E+00  0.44200329E+00  0.99818350E+00
  0.23554703E+00  0.57012093E+00  0.98608468E+00
  0.60944672E-01  0.61199185E+00  0.15307959E+00
  0.26703845E+00  0.39665398E+00  0.18827619E+00
  0.42517071E+00  0.44922286E+00  0.13987451E-01
  0.56928791E+00  0.55172580E+00  0.99976285E+00
  0.40094888E+00  0.59265289E+00  0.16836634E+00
  0.60270181E+00  0.39502492E+00  0.19233794E+00
  0.75998631E+00  0.43878107E+00  0.99723791E+00
  0.89331452E+00  0.56174009E+00  0.99488455E+00
  0.73644777E+00  0.61107419E+00  0.15719614E+00
  0.93797893E+00  0.39873127E+00  0.15161249E+00
  0.10279585E+00  0.77489219E+00  0.17286974E-02
  0.24252339E+00  0.89779974E+00  0.98875122E+00
  0.61955205E-01  0.92556306E+00  0.17733570E+00
  0.27869113E+00  0.73506292E+00  0.16483928E+00
  0.44328283E+00  0.77131783E+00  0.99964890E+00
  0.57099329E+00  0.89121665E+00  0.98900925E+00
  0.40278809E+00  0.93481738E+00  0.15695098E+00
  0.58800307E+00  0.71701170E+00  0.17261758E+00
  0.73746869E+00  0.78917390E+00  0.45304135E-02
  0.89879310E+00  0.87945326E+00  0.99114173E+00
  0.72896874E+00  0.94334795E+00  0.16519106E+00
  0.91337712E+00  0.71825290E+00  0.15484682E+00
  0.10866819E+00  0.79082296E-01  0.32169725E+00
  0.23030124E+00  0.22953609E+00  0.33941590E+00
  0.59402386E-01  0.26761163E+00  0.49062083E+00
  0.25807055E+00  0.46502869E-01  0.48961894E+00
  0.42410421E+00  0.12277217E+00  0.34088541E+00
  0.57557298E+00  0.22306357E+00  0.34171032E+00
  0.39513965E+00  0.26863951E+00  0.50173910E+00
  0.59187432E+00  0.65533466E-01  0.50496228E+00
  0.77249933E+00  0.10033186E+00  0.33201990E+00
  0.90370575E+00  0.22764782E+00  0.33085479E+00
  0.73698700E+00  0.26480243E+00  0.53006613E+00
  0.93834907E+00  0.61768529E-01  0.50187319E+00
  0.10417443E+00  0.45228759E+00  0.32281941E+00
  0.22737862E+00  0.58120908E+00  0.32654317E+00
  0.64027003E-01  0.60757208E+00  0.49717217E+00
  0.26704546E+00  0.40916510E+00  0.50701266E+00
  0.42803175E+00  0.44574365E+00  0.35612342E+00
  0.57287344E+00  0.55775746E+00  0.34273374E+00
  0.40952691E+00  0.61780866E+00  0.49748478E+00
  0.59816158E+00  0.39696611E+00  0.49721763E+00
  0.77100072E+00  0.43938348E+00  0.34390391E+00
  0.91368924E+00  0.54525798E+00  0.32712881E+00
  0.74484247E+00  0.61647828E+00  0.49336364E+00
  0.93393182E+00  0.39101165E+00  0.48551003E+00
  0.10163543E+00  0.76702137E+00  0.31398641E+00
  0.25048014E+00  0.88995091E+00  0.32096333E+00
  0.59369661E-01  0.93366128E+00  0.50452104E+00
  0.26075092E+00  0.72533468E+00  0.50339563E+00
  0.44066192E+00  0.77207576E+00  0.33150154E+00
  0.56791585E+00  0.89451845E+00  0.33096177E+00
  0.41261290E+00  0.95041343E+00  0.48993598E+00
  0.59967928E+00  0.72868657E+00  0.49868063E+00
  0.76099161E+00  0.77613034E+00  0.33299931E+00
  0.89593721E+00  0.90096881E+00  0.33247817E+00
  0.73389323E+00  0.95634752E+00  0.49996710E+00
  0.93128411E+00  0.73443501E+00  0.49562554E+00
  0.94320701E-01  0.92455918E-01  0.66948518E+00
  0.23526274E+00  0.22384631E+00  0.67746290E+00
  0.70458717E-01  0.27395582E+00  0.83077678E+00
  0.26020595E+00  0.51442654E-01  0.83581643E+00
  0.41882558E+00  0.11546706E+00  0.67161001E+00
  0.56678947E+00  0.23048278E+00  0.69045606E+00
  0.40874773E+00  0.27774714E+00  0.85921596E+00
  0.59963947E+00  0.73778929E-01  0.84749374E+00
  0.76739046E+00  0.10186007E+00  0.66470542E+00
  0.90416097E+00  0.21724814E+00  0.67534080E+00
  0.73573321E+00  0.26646329E+00  0.84974783E+00
  0.92500387E+00  0.48639057E-01  0.84530053E+00
  0.88415262E-01  0.44029594E+00  0.64932870E+00
  0.22977231E+00  0.56292256E+00  0.66555521E+00
  0.61850992E-01  0.60550491E+00  0.83346691E+00
  0.26872514E+00  0.38938960E+00  0.83357450E+00
  0.44866657E+00  0.41992148E+00  0.67382353E+00
  0.58253195E+00  0.54680788E+00  0.68122439E+00
  0.40106837E+00  0.60138064E+00  0.82745141E+00
  0.59796834E+00  0.38717136E+00  0.84389628E+00
  0.77715723E+00  0.43007239E+00  0.66518081E+00
  0.91187334E+00  0.55058548E+00  0.65884689E+00
  0.73912954E+00  0.61008796E+00  0.83110659E+00
  0.92745311E+00  0.39634359E+00  0.82830951E+00
  0.94119722E-01  0.77794710E+00  0.65633326E+00
  0.23493818E+00  0.88889146E+00  0.64442727E+00
  0.73305124E-01  0.93164902E+00  0.82843749E+00
  0.27712743E+00  0.72965842E+00  0.83551526E+00
  0.42742353E+00  0.78561310E+00  0.66344585E+00
  0.56465197E+00  0.90159011E+00  0.65179559E+00
  0.39091123E+00  0.93658057E+00  0.83984377E+00
  0.59172741E+00  0.71577247E+00  0.82116707E+00
  0.76299569E+00  0.77202867E+00  0.65708257E+00
  0.89792789E+00  0.89572661E+00  0.67453639E+00
  0.73095230E+00  0.94843622E+00  0.83573653E+00
  0.92806439E+00  0.72573367E+00  0.81694203E+00
  0.39180705E-04 -0.13943252E-04  0.21080087E-03
  0.74702855E-04  0.19673412E-03 -0.20656695E-05
 -0.13225472E-03 -0.42142345E-04 -0.50847070E-04
 -0.93982119E-04  0.16144746E-03 -0.31085695E-04
 -0.45721638E-04 -0.81482111E-04 -0.14721728E-03
 -0.61898740E-04  0.56698988E-04 -0.34516293E-03
  0.13695368E-03 -0.18261530E-03  0.19513189E-03
  0.13555317E-03  0.23249933E-04 -0.21492823E-03
  0.62326903E-04  0.18455083E-03 -0.16022165E-03
 -0.24391839E-03  0.37296452E-04  0.21367761E-03
  0.59800438E-04 -0.35494772E-04 -0.18124555E-03
 -0.15326416E-03  0.12888756E-03  0.29867310E-03
 -0.18435763E-03 -0.28416180E-03  0.43342956E-03
 -0.10198042E-03  0.26428604E-04  0.17249996E-03
 -0.84325412E-04  0.47417505E-05  0.26176622E-03
  0.33278909E-03 -0.16557683E-04 -0.57931917E-04
  0.26907312E-04 -0.12097359E-03 -0.20471426E-04
  0.33649577E-04  0.12619042E-03 -0.13564970E-03
 -0.13223431E-03 -0.18758201E-03  0.18446394E-03
 -0.14876130E-03 -0.20539876E-03 -0.17104961E-03
  0.81413270E-05  0.15837605E-03  0.43075882E-04
  0.24364571E-03  0.94464174E-04  0.12515724E-03
 -0.17662342E-03  0.12729947E-03 -0.41402789E-04
 -0.17010372E-03 -0.10092009E-03 -0.94864580E-04
 -0.34001172E-05 -0.30189110E-03 -0.57333258E-04
  0.13798098E-03 -0.34641783E-04  0.15070570E-04
 -0.66164532E-04  0.13442153E-03 -0.38967037E-04
 -0.57942114E-04  0.46848079E-04 -0.12724723E-03
 -0.21743846E-03  0.14151182E-03  0.98633736E-04
  0.56213237E-04  0.18528945E-03  0.12173860E-03
  0.10868577E-03  0.22127835E-03  0.16517122E-03
 -0.16397628E-03  0.13522629E-04  0.28920488E-03
  0.62501680E-04 -0.53461002E-04 -0.85651785E-04
  0.10949233E-03  0.54964968E-04 -0.14149143E-03
  0.21931722E-03  0.95870873E-04  0.52946180E-04
  0.19331131E-03  0.45930265E-04 -0.73989891E-04
  0.57698074E-04 -0.18114387E-03 -0.11563249E-03
  0.85209044E-04 -0.23499990E-03 -0.16909561E-03
 -0.18219888E-03  0.12180786E-03 -0.36534717E-03
 -0.13067780E-04 -0.71761195E-04  0.84564886E-04
  0.14806635E-04  0.21927015E-03 -0.69386354E-03
  0.10218091E-03 -0.63865971E-04  0.48198199E-04
  0.47630057E-04  0.23909407E-04 -0.19096861E-03
 -0.82274708E-04  0.37433546E-04 -0.29367256E-03
 -0.31902493E-03 -0.18689546E-03 -0.23722005E-03
 -0.31314400E-04 -0.21772219E-03 -0.18562842E-03
  0.84874826E-05  0.30668591E-04 -0.80330604E-04
  0.34774385E-04  0.62942062E-04  0.33932141E-03
  0.14734047E-03 -0.11078400E-03  0.21868395E-03
 -0.89139539E-04  0.86203037E-04  0.11291754E-03
  0.10336533E-03  0.87119861E-04  0.18758886E-03
  0.20787362E-04  0.44169179E-04 -0.23840155E-03
  0.14006546E-05 -0.90561916E-04  0.12749891E-03
  0.18191270E-03 -0.33528448E-08 -0.86992691E-04
 -0.27780123E-03  0.34579987E-03  0.23287408E-03
 -0.76323398E-04  0.21596981E-04 -0.37470209E-03
 -0.87506534E-04 -0.48609333E-04  0.57969465E-03
 -0.44638097E-03  0.12961454E-03 -0.19037577E-03
  0.77504731E-04  0.29220026E-03 -0.12665172E-03
  0.39612727E-03 -0.38109519E-03  0.89870518E-04
 -0.13333589E-04  0.18745697E-03  0.37090951E-03
 -0.55942496E-03 -0.44550148E-03 -0.71430585E-03
  0.21360665E-03  0.75409821E-04 -0.25266337E-03
 -0.68376233E-04  0.45324165E-03  0.71028421E-03
 -0.57416542E-03 -0.25486749E-03 -0.97496647E-04
 -0.27359980E-03  0.33384993E-03  0.20840601E-04
 -0.76857343E-03 -0.10135522E-03  0.98632626E-03
  0.23036385E-03 -0.23304299E-04 -0.44891104E-03
 -0.41879181E-03  0.61247733E-04  0.48890474E-03
  0.45674080E-03 -0.22050189E-04 -0.15437045E-04
  0.46939491E-03 -0.77830702E-03  0.94954262E-04
  0.54793720E-03  0.68643352E-03 -0.64220703E-03
  0.37278258E-03 -0.27398480E-03 -0.26549909E-03
 -0.85420117E-03 -0.41647146E-03 -0.84476621E-03
 -0.27140555E-03 -0.80234506E-03 -0.79907188E-03
 -0.24975159E-03  0.25526409E-03  0.36616018E-03
 -0.23639030E-04 -0.40127844E-04 -0.32079518E-03
  0.82089163E-05 -0.59090674E-03 -0.32725998E-03