CONTCAR-pb-2                            
   1.00000000000000     
    14.5873679416491164   -0.0001273542984712   -0.0001581393814459
     0.0000015734413964   14.5879826862739801    0.0001270023723751
    -0.0000741964788292    0.0000604293028183    9.7546285866227027
   Sn   O    Pb
    54   108     1
Direct
  0.0009247761679564  0.0013602367852116 -0.0005495329894580
  0.1654895221220861  0.1676198923456250  0.1658906728356512
  0.3330295584144779  0.0009552535928425 -0.0007133503756238
  0.4998572401726842  0.1666862738345458  0.1665524809782829
  0.6670763482855530  0.0001113501658805  0.0003761817505417
  0.8342434442459530  0.1657151067138405  0.1658583243293163
 -0.0012130466850573  0.3319665083099967 -0.0005701950219434
  0.1615040509814693  0.4955719995813684  0.1650054475135303
  0.3326179012792507  0.3332517400577328  0.0004003988151358
  0.5008173810977630  0.4947801701521173  0.1652781808081724
  0.6666752922747727  0.3324203544706555 -0.0007680442347333
  0.8361221109789273  0.4967806629689401  0.1652856838644400
 -0.0001435303382015  0.6666812445809932  0.0002898233128454
  0.1636171258669141  0.8365852570187454  0.1653159334761553
  0.3346430537843055  0.6644411617808280  0.0016818738000120
  0.4989215173684843  0.8385712239340105  0.1652957009862166
  0.6650733280125465  0.6688938988230732  0.0016201048420433
  0.8381685786129323  0.8377774799106892  0.1650008962170840
 -0.0001454307533709  0.0028014008232528  0.3335043630809928
  0.1637632846503276  0.1666919824578517  0.5007709509957812
  0.3291501185706482  0.0043598960761816  0.3310358726818864
  0.4998751507501309  0.1666844323702277  0.5004522138748299
  0.6701041564408952  0.0027616704652512  0.3333798320872843
  0.8359698599522312  0.1666407434278000  0.5007442194073760
 -0.0001411469897675  0.3305359549922147  0.3334937687159802
  0.1621387974355793  0.4959396327191540  0.5032267438625444
  0.3295951948341525  0.3306175900969135  0.3333923426895030
  0.5001714739744519  0.4743362600018589  0.5037234928899258
  0.6706107538512316  0.3289691470851445  0.3309511298580147
  0.8359358879640365  0.4964377071432454  0.5008333734224931
 -0.0001512976406007  0.6666999281663539  0.3337622302772446
  0.1637590979773818  0.8369504940225466  0.5008703069002212
  0.3073817706599899  0.6664762550832781  0.3305753800240546
  0.4996462762581548  0.8589159473372157  0.5037283748540280
  0.6922327288965734  0.6668666468299463  0.3304768445333457
  0.8375234567702596  0.8374270350604222  0.5032162069450252
  0.0008146748567629  0.0010310885820539  0.6683747782480577
  0.1651299209987114  0.1677435938403663  0.8348027219675105
  0.3287832865504762  0.0049952769905787  0.6691960521497717
  0.4998490744603481  0.1666867693486282  0.8339165172576534
  0.6697154772888423  0.0029138672809755  0.6689169050572737
  0.8345984842997672  0.1655958048947016  0.8347825210346215
 -0.0011153636145379  0.3323111636118127  0.6683617219714428
  0.1655995160938192  0.4998932588686470  0.8349293565012716
  0.3299777846450554  0.3304742015550054  0.6689255696363546
  0.5020915433762795  0.5014439849651048  0.8325784791530029
  0.6709979002590803  0.3283291868956946  0.6691659600422735
  0.8332669773707776  0.4994722679470568  0.8338130844704054
 -0.0001629336551082  0.6666932811134126  0.6676478557305052
  0.1664412752843921  0.8338988664969189  0.8338473527409026
  0.3280529347389735  0.6657517027877329  0.6689554124974358
  0.4975960481627242  0.8319021467786168  0.8326013662573015
  0.6715953136017397  0.6676587313620683  0.6689098373541670
  0.8340671893064612  0.8334753758814127  0.8349280138353313
  0.1015412010689754  0.1029836846760270  0.0003525296147486
  0.2299273841165992  0.2323387132516855  0.0002918233659831
  0.0642703232562104  0.2687381768997686  0.1657739525344330
  0.2666602446672928  0.0660267142155187  0.1642490936540685
  0.4355367026138832  0.1022080470839574 -0.0003144350234476
  0.5641696498770554  0.2311760968471674 -0.0003342870983081
  0.3973349351766874  0.2691915930283106  0.1668358268907458
  0.6023868317241772  0.0642032194905318  0.1667998923320966
  0.7698126914805064  0.1010040222154217  0.0002715168192652
  0.8982010471108086  0.2303411571498157  0.0003190108373962
  0.7330845536971839  0.2673255496307435  0.1641729428655308
  0.9354471218461262  0.0645935219466764  0.1657987617418396
  0.1000766911092569  0.4343172702181813 -0.0019057798195306
  0.2317916978288434  0.5628513007534475  0.0029274089265555
  0.0623252898106990  0.6004209298750136  0.1666427173767176
  0.2675012169692743  0.3976491386289270  0.1672640914708375
  0.4342430980703472  0.4375528850099967 -0.0012406606046686
  0.5632606570200908  0.5659824549745344  0.0020114854960717
  0.3986518547552804  0.6064055196437360  0.1800473093489021
  0.6012533874157474  0.3922759058386014  0.1655979693381617
  0.7686379325923616  0.4346585771037333  0.0000977325766129
  0.8984408003400488  0.5634567154261657 -0.0005129880249926
  0.7361516846893104  0.6015477073793003  0.1601968487793105
  0.9366248458155312  0.3965128112766608  0.1671515805637236
  0.1012768666119069  0.7699023788902514 -0.0004915504452848
  0.2310734781830889  0.8987216760396366  0.0001317733855840
  0.0630689383133783  0.9368114243003672  0.1671727093639682
  0.2635927332021778  0.7318317299697730  0.1602615488556241
  0.4364621526761128  0.7673503728861207  0.0020580688601296
  0.5654525600990883  0.8958074971727479 -0.0012507859199548
  0.3984414602455227  0.9410306583372762  0.1656452652809925
  0.6010385946613217  0.7269315785277459  0.1799743499637904
  0.7678628871021064  0.7705237487735216  0.0029109476680157
  0.8996122093801084  0.8990247713124127 -0.0019032810470394
  0.7322113864439280  0.9357383161909080  0.1672427167112404
  0.9373638756402672  0.7329488603072147  0.1666327458869346
  0.1010456884191638  0.1033399667315177  0.3325649859358751
  0.2293557119612403  0.2302292102754707  0.3342266536004841
  0.0631995105054658  0.2678549241401800  0.5017243439717320
  0.2649759178651905  0.0662270349311053  0.4998824948303138
  0.4334151380387267  0.1043838473126628  0.3335091915989286
  0.5663174012015538  0.2289793254156073  0.3334898936194760
  0.3995992095253468  0.2719119619258927  0.5008923588332199
  0.6001457170132749  0.0614921489541098  0.5008781569230262
  0.7703563686613411  0.1031389050092330  0.3342035141821392
  0.8986945554714312  0.2299866269284707  0.3325386146599491
  0.7347796373359811  0.2671090837395564  0.4998350270471450
  0.9365092410640665  0.0654693147808057  0.5017215813409264
  0.1003004377199255  0.4317723147170089  0.3343271823886412
  0.2197864020063486  0.5614132154931150  0.3323969509499217
  0.0621070147907707  0.6002042213815134  0.5006969647689133
  0.2672071857319381  0.3968504663635580  0.5014765369899487
  0.4328889735200200  0.4319654224772569  0.3313236546832369
  0.5791778185657194  0.5422513200967121  0.3321215211858421
  0.3755676940859228  0.5876236305908290  0.5019833356432367
  0.6051567842896064  0.3866320568580400  0.5018036470541082
  0.7697019961061383  0.4340581569803691  0.3327246391601457
  0.8946002556189160  0.5664561625704800  0.3333213142282401
  0.7346065967531250  0.5997720023397392  0.5029787758301490
  0.9363149803377718  0.3961812200056435  0.4999965207078643
  0.1051063387943947  0.7669229323606094  0.3333368168773831
  0.2300079613574889  0.8993165898845169  0.3327660486475901
  0.0633504674422474  0.9371455218395124  0.5000204067019276
  0.2650785687192077  0.7336862088111508  0.5030103612081894
  0.4206909578278171  0.7910452710965782  0.3322367429007478
  0.5668529882907162  0.9014232191891061  0.3313064536472516
  0.3946454776824159  0.9466736611734732  0.5018506931978964
  0.6238929488422109  0.7458081752892740  0.5019979473375005
  0.7798042767772780  0.7719690087998204  0.3323882975197026
  0.8993803809337464  0.9015762488000404  0.3343224572373834
  0.7324618402478454  0.9365150503830558  0.5014800333209931
  0.9375463270023395  0.7331575199234688  0.5006942293833080
  0.1019655500687931  0.1022162601863399  0.6684550086361958
  0.2296875704563646  0.2299521755317218  0.6671198981351907
  0.0634975334970876  0.2683193794286695  0.8339030318091710
  0.2675267765798272  0.0664751620471958  0.8360507856979028
  0.4336182141060657  0.1041978167026493  0.6675933147545904
  0.5661224271133359  0.2291784865838953  0.6675870782280635
  0.3966535547179045  0.2681472430552997  0.8347347240274284
  0.6030684743466865  0.0652513525233569  0.8347272416841628
  0.7700323802438874  0.1033999693671891  0.6671081633714405
  0.8977670188796628  0.2311149020381299  0.6684326707792030
  0.7322222852167545  0.2668828120922351  0.8360553602389839
  0.9362307736396093  0.0650270739397490  0.8339027480340131
  0.1004858478358764  0.4334808421893275  0.6700324541669644
  0.2255040887112152  0.5653123727218812  0.6685752559402645
  0.0643582359384434  0.6024062772197928  0.8345280945039893
  0.2678564843172461  0.3979554476138658  0.8341000400081570
  0.4347397040979296  0.4304350755947142  0.6739286888656894
  0.5601405430183845  0.5654781160510964  0.6542567214047526
  0.3991824814435467  0.6032580109524172  0.8322450454516578
  0.6037192611740327  0.3986492388855026  0.8312720797239144
  0.7689123698187947  0.4343246690397553  0.6669336944667187
  0.8973712466131214  0.5641496788658750  0.6673948688508332
  0.7289665050637746  0.6011123480448697  0.8354105906975673
  0.9342138383125340  0.3967772785438156  0.8339440799334543
  0.1023082190976696  0.7692301249870597  0.6674316379799218
  0.2308056757851979  0.8990430962330658  0.6669887467519480
  0.0655015890252342  0.9365757957613202  0.8339595029306851
  0.2707502280243360  0.7322703294872346  0.8355017970917071
  0.4395410928353863  0.7678573780496361  0.6543042378864622
  0.5649739546968197  0.9029228596694217  0.6739745900401581
  0.3960235350794425  0.9347276905457123  0.8313558511569538
  0.6004900921576929  0.7300787283530287  0.8322285467735275
  0.7740909091174194  0.7681227142797238  0.6685501380187429
  0.8992185953656837  0.8998512924902312  0.6700338372294138
  0.7318419625623405  0.9354288644490759  0.8340953707486809
  0.9352845793810894  0.7309368900279306  0.8345307686558951
  0.4998047552731347  0.6665824652191079  0.4164844007727239
 
  0.00000000E+00  0.00000000E+00  0.00000000E+00
  0.00000000E+00  0.00000000E+00  0.00000000E+00
  0.00000000E+00  0.00000000E+00  0.00000000E+00
  0.00000000E+00  0.00000000E+00  0.00000000E+00
  0.00000000E+00  0.00000000E+00  0.00000000E+00
  0.00000000E+00  0.00000000E+00  0.00000000E+00
  0.00000000E+00  0.00000000E+00  0.00000000E+00
  0.00000000E+00  0.00000000E+00  0.00000000E+00
  0.00000000E+00  0.00000000E+00  0.00000000E+00
  0.00000000E+00  0.00000000E+00  0.00000000E+00
  0.00000000E+00  0.00000000E+00  0.00000000E+00
  0.00000000E+00  0.00000000E+00  0.00000000E+00
  0.00000000E+00  0.00000000E+00  0.00000000E+00
  0.00000000E+00  0.00000000E+00  0.00000000E+00
  0.00000000E+00  0.00000000E+00  0.00000000E+00
  0.00000000E+00  0.00000000E+00  0.00000000E+00
  0.00000000E+00  0.00000000E+00  0.00000000E+00
  0.00000000E+00  0.00000000E+00  0.00000000E+00
  0.00000000E+00  0.00000000E+00  0.00000000E+00
  0.00000000E+00  0.00000000E+00  0.00000000E+00
  0.00000000E+00  0.00000000E+00  0.00000000E+00
  0.00000000E+00  0.00000000E+00  0.00000000E+00
  0.00000000E+00  0.00000000E+00  0.00000000E+00
  0.00000000E+00  0.00000000E+00  0.00000000E+00
  0.00000000E+00  0.00000000E+00  0.00000000E+00
  0.00000000E+00  0.00000000E+00  0.00000000E+00
  0.00000000E+00  0.00000000E+00  0.00000000E+00
  0.00000000E+00  0.00000000E+00  0.00000000E+00
  0.00000000E+00  0.00000000E+00  0.00000000E+00
  0.00000000E+00  0.00000000E+00  0.00000000E+00
  0.00000000E+00  0.00000000E+00  0.00000000E+00
  0.00000000E+00  0.00000000E+00  0.00000000E+00
  0.00000000E+00  0.00000000E+00  0.00000000E+00
  0.00000000E+00  0.00000000E+00  0.00000000E+00
  0.00000000E+00  0.00000000E+00  0.00000000E+00
  0.00000000E+00  0.00000000E+00  0.00000000E+00
  0.00000000E+00  0.00000000E+00  0.00000000E+00
  0.00000000E+00  0.00000000E+00  0.00000000E+00
  0.00000000E+00  0.00000000E+00  0.00000000E+00
  0.00000000E+00  0.00000000E+00  0.00000000E+00
  0.00000000E+00  0.00000000E+00  0.00000000E+00
  0.00000000E+00  0.00000000E+00  0.00000000E+00
  0.00000000E+00  0.00000000E+00  0.00000000E+00
  0.00000000E+00  0.00000000E+00  0.00000000E+00
  0.00000000E+00  0.00000000E+00  0.00000000E+00
  0.00000000E+00  0.00000000E+00  0.00000000E+00
  0.00000000E+00  0.00000000E+00  0.00000000E+00
  0.00000000E+00  0.00000000E+00  0.00000000E+00
  0.00000000E+00  0.00000000E+00  0.00000000E+00
  0.00000000E+00  0.00000000E+00  0.00000000E+00
  0.00000000E+00  0.00000000E+00  0.00000000E+00
  0.00000000E+00  0.00000000E+00  0.00000000E+00
  0.00000000E+00  0.00000000E+00  0.00000000E+00
  0.00000000E+00  0.00000000E+00  0.00000000E+00
  0.00000000E+00  0.00000000E+00  0.00000000E+00
  0.00000000E+00  0.00000000E+00  0.00000000E+00
  0.00000000E+00  0.00000000E+00  0.00000000E+00
  0.00000000E+00  0.00000000E+00  0.00000000E+00
  0.00000000E+00  0.00000000E+00  0.00000000E+00
  0.00000000E+00  0.00000000E+00  0.00000000E+00
  0.00000000E+00  0.00000000E+00  0.00000000E+00
  0.00000000E+00  0.00000000E+00  0.00000000E+00
  0.00000000E+00  0.00000000E+00  0.00000000E+00
  0.00000000E+00  0.00000000E+00  0.00000000E+00
  0.00000000E+00  0.00000000E+00  0.00000000E+00
  0.00000000E+00  0.00000000E+00  0.00000000E+00
  0.00000000E+00  0.00000000E+00  0.00000000E+00
  0.00000000E+00  0.00000000E+00  0.00000000E+00
  0.00000000E+00  0.00000000E+00  0.00000000E+00
  0.00000000E+00  0.00000000E+00  0.00000000E+00
  0.00000000E+00  0.00000000E+00  0.00000000E+00
  0.00000000E+00  0.00000000E+00  0.00000000E+00
  0.00000000E+00  0.00000000E+00  0.00000000E+00
  0.00000000E+00  0.00000000E+00  0.00000000E+00
  0.00000000E+00  0.00000000E+00  0.00000000E+00
  0.00000000E+00  0.00000000E+00  0.00000000E+00
  0.00000000E+00  0.00000000E+00  0.00000000E+00
  0.00000000E+00  0.00000000E+00  0.00000000E+00
  0.00000000E+00  0.00000000E+00  0.00000000E+00
  0.00000000E+00  0.00000000E+00  0.00000000E+00
  0.00000000E+00  0.00000000E+00  0.00000000E+00
  0.00000000E+00  0.00000000E+00  0.00000000E+00
  0.00000000E+00  0.00000000E+00  0.00000000E+00
  0.00000000E+00  0.00000000E+00  0.00000000E+00
  0.00000000E+00  0.00000000E+00  0.00000000E+00
  0.00000000E+00  0.00000000E+00  0.00000000E+00
  0.00000000E+00  0.00000000E+00  0.00000000E+00
  0.00000000E+00  0.00000000E+00  0.00000000E+00
  0.00000000E+00  0.00000000E+00  0.00000000E+00
  0.00000000E+00  0.00000000E+00  0.00000000E+00
  0.00000000E+00  0.00000000E+00  0.00000000E+00
  0.00000000E+00  0.00000000E+00  0.00000000E+00
  0.00000000E+00  0.00000000E+00  0.00000000E+00
  0.00000000E+00  0.00000000E+00  0.00000000E+00
  0.00000000E+00  0.00000000E+00  0.00000000E+00
  0.00000000E+00  0.00000000E+00  0.00000000E+00
  0.00000000E+00  0.00000000E+00  0.00000000E+00
  0.00000000E+00  0.00000000E+00  0.00000000E+00
  0.00000000E+00  0.00000000E+00  0.00000000E+00
  0.00000000E+00  0.00000000E+00  0.00000000E+00
  0.00000000E+00  0.00000000E+00  0.00000000E+00
  0.00000000E+00  0.00000000E+00  0.00000000E+00
  0.00000000E+00  0.00000000E+00  0.00000000E+00
  0.00000000E+00  0.00000000E+00  0.00000000E+00
  0.00000000E+00  0.00000000E+00  0.00000000E+00
  0.00000000E+00  0.00000000E+00  0.00000000E+00
  0.00000000E+00  0.00000000E+00  0.00000000E+00
  0.00000000E+00  0.00000000E+00  0.00000000E+00
  0.00000000E+00  0.00000000E+00  0.00000000E+00
  0.00000000E+00  0.00000000E+00  0.00000000E+00
  0.00000000E+00  0.00000000E+00  0.00000000E+00
  0.00000000E+00  0.00000000E+00  0.00000000E+00
  0.00000000E+00  0.00000000E+00  0.00000000E+00
  0.00000000E+00  0.00000000E+00  0.00000000E+00
  0.00000000E+00  0.00000000E+00  0.00000000E+00
  0.00000000E+00  0.00000000E+00  0.00000000E+00
  0.00000000E+00  0.00000000E+00  0.00000000E+00
  0.00000000E+00  0.00000000E+00  0.00000000E+00
  0.00000000E+00  0.00000000E+00  0.00000000E+00
  0.00000000E+00  0.00000000E+00  0.00000000E+00
  0.00000000E+00  0.00000000E+00  0.00000000E+00
  0.00000000E+00  0.00000000E+00  0.00000000E+00
  0.00000000E+00  0.00000000E+00  0.00000000E+00
  0.00000000E+00  0.00000000E+00  0.00000000E+00
  0.00000000E+00  0.00000000E+00  0.00000000E+00
  0.00000000E+00  0.00000000E+00  0.00000000E+00
  0.00000000E+00  0.00000000E+00  0.00000000E+00
  0.00000000E+00  0.00000000E+00  0.00000000E+00
  0.00000000E+00  0.00000000E+00  0.00000000E+00
  0.00000000E+00  0.00000000E+00  0.00000000E+00
  0.00000000E+00  0.00000000E+00  0.00000000E+00
  0.00000000E+00  0.00000000E+00  0.00000000E+00
  0.00000000E+00  0.00000000E+00  0.00000000E+00
  0.00000000E+00  0.00000000E+00  0.00000000E+00
  0.00000000E+00  0.00000000E+00  0.00000000E+00
  0.00000000E+00  0.00000000E+00  0.00000000E+00
  0.00000000E+00  0.00000000E+00  0.00000000E+00
  0.00000000E+00  0.00000000E+00  0.00000000E+00
  0.00000000E+00  0.00000000E+00  0.00000000E+00
  0.00000000E+00  0.00000000E+00  0.00000000E+00
  0.00000000E+00  0.00000000E+00  0.00000000E+00
  0.00000000E+00  0.00000000E+00  0.00000000E+00
  0.00000000E+00  0.00000000E+00  0.00000000E+00
  0.00000000E+00  0.00000000E+00  0.00000000E+00
  0.00000000E+00  0.00000000E+00  0.00000000E+00
  0.00000000E+00  0.00000000E+00  0.00000000E+00
  0.00000000E+00  0.00000000E+00  0.00000000E+00
  0.00000000E+00  0.00000000E+00  0.00000000E+00
  0.00000000E+00  0.00000000E+00  0.00000000E+00
  0.00000000E+00  0.00000000E+00  0.00000000E+00
  0.00000000E+00  0.00000000E+00  0.00000000E+00
  0.00000000E+00  0.00000000E+00  0.00000000E+00
  0.00000000E+00  0.00000000E+00  0.00000000E+00
  0.00000000E+00  0.00000000E+00  0.00000000E+00
  0.00000000E+00  0.00000000E+00  0.00000000E+00
  0.00000000E+00  0.00000000E+00  0.00000000E+00
  0.00000000E+00  0.00000000E+00  0.00000000E+00
  0.00000000E+00  0.00000000E+00  0.00000000E+00
  0.00000000E+00  0.00000000E+00  0.00000000E+00
  0.00000000E+00  0.00000000E+00  0.00000000E+00
  0.00000000E+00  0.00000000E+00  0.00000000E+00
  0.00000000E+00  0.00000000E+00  0.00000000E+00
  0.00000000E+00  0.00000000E+00  0.00000000E+00
