CONTCAR-qvdai                           
   1.00000000000000     
    14.4414740842709328   -0.0007474433111926    0.0000000000000000
    -0.0007474431454255   14.4414804789008961    0.0000000000000000
     0.0000000000000000    0.0000000000000000    9.7223100151145676
   Sn   Ti   O 
    53     1   108
Direct
  0.0002504095614168  0.0107565416693423  0.0054113054201716
  0.1648083166948383  0.1722437569706325  0.1561875134889403
  0.4958563333856595  0.1658579360649570  0.1563385594001518
  0.6698345041856415  0.9887376455919316  0.9962895735860624
  0.8321675060502345  0.1654210931415373  0.1639395758181361
  0.0128759422081896  0.3252486849220008  0.9945861876549705
  0.1609213295897154  0.5151034352412365  0.1679214994457307
  0.3358627483387531  0.3353121092594624  0.0009379158165139
  0.4975296977595122  0.4962332053242808  0.1782247562560804
  0.6648105968149868  0.3330873003766772  0.9986329601332214
  0.8291560406211718  0.5041142824802365  0.1691315576909310
  0.0006337828280913  0.6668716592197467  0.0012072886177276
  0.1602714948661756  0.8307468420419386  0.1690486873394133
  0.3381745519757396  0.6627166860458362  0.9992926841467812
  0.4929935288967823  0.8333225020914852  0.1650912983392810
  0.6614147078968116  0.6679111748770512  0.0068361611116427
  0.8366451029338574  0.8393775491067256  0.1737861572680546
  0.9970168374851006  0.0020985130870931  0.3367953818538008
  0.1714556990327308  0.1622287308094500  0.4947588222088306
  0.3358570992610644  0.9918865096434056  0.3320008265494061
  0.4997433465256340  0.1669872231793347  0.4845433365543067
  0.6726962846139544  0.0018721697811616  0.3281427952003986
  0.8251130889621233  0.1759079469200889  0.5015721982968788
  0.9931497067095628  0.3318823462052261  0.3286283750373041
  0.1613492309946969  0.4992168967886820  0.4900611962680501
  0.3294955159339993  0.3341595286140703  0.3233393137679814
  0.4969779951473204  0.4995373168537887  0.5012329109988609
  0.6705718112650980  0.3293047752277338  0.3239689149105733
  0.8326855215678932  0.4983498570500295  0.5033811085447366
  0.9863852284214484  0.6701146468049529  0.3406069493129612
  0.1807270191279432  0.8319648965862327  0.5112999129744292
  0.3396322291539461  0.6748906029611031  0.3307912107123001
  0.5171777597057930  0.8354664539712964  0.4940235236787021
  0.6723436765114623  0.6716960075256431  0.3509450152550408
  0.8321251852660936  0.8399309896178118  0.5057379230587470
  0.9944839255812720  0.9942016371105594  0.6603654651949837
  0.1757108352586431  0.1655228118934790  0.8238616762507511
  0.3416399848499046  0.9980023924579737  0.6787532170353029
  0.5002523602111553  0.1670360199919893  0.8370129276308232
  0.6553614369969518  0.0114309090637171  0.6629651880858409
  0.8289802113916331  0.1692924411770369  0.8257320827470647
  0.9950805451511499  0.3277138928993173  0.6604715576900150
  0.1800508275668352  0.4984282713442129  0.8210922254083158
  0.3321738256476935  0.3328845529982593  0.6639105423920443
  0.4996476242061701  0.4896028240931420  0.8335251102897719
  0.6684459962919310  0.3312406116721809  0.6604785799401588
  0.8443211211464544  0.4906196707422910  0.8428186225992457
  0.0022237507768472  0.6606831240873906  0.6670873556448859
  0.1615149719463655  0.8373936178430463  0.8531349430810442
  0.3353902349622002  0.6585972919606227  0.6635238253090953
  0.4936251860425082  0.8324020802999647  0.8316567865433093
  0.6729334112206319  0.6616130662381012  0.6766399558013116
  0.8271698498407155  0.8291767459204787  0.8428578333246601
  0.3272703558642405  0.9885130618522231  0.0066136009001064
  0.1040588099278783  0.1048734988191514  0.9888510618616647
  0.2297478271247118  0.2350317149960468  0.9919432224522112
  0.0769427273534745  0.2782755915032606  0.1580327912124423
  0.2590013098244370  0.0568371728887187  0.1665659669494979
  0.4366088270905076  0.0987299751668737  0.9895555838328750
  0.5613844383387460  0.2365809834692932  0.9988991192270926
  0.3967505302669883  0.2757204201054737  0.1688152342236713
  0.6023654839122943  0.0640455060155677  0.1616149216290951
  0.7644679165736250  0.0948606003685677  0.9940333005932832
  0.8873281922392997  0.2368822238030600  0.9984903135350346
  0.7202940981901862  0.2657716387455449  0.1510984834068961
  0.9331567586651782  0.0689150846879033  0.1683086372009346
  0.1213000802925439  0.4332396557211408  0.9833936920661398
  0.2199700953209670  0.5829575067589280  0.9817893389401245
  0.0550990739197655  0.6023166880797822  0.1795108976097124
  0.2686507370524734  0.4078226895208597  0.1509585300102345
  0.4313116100928376  0.4419661671555152  0.0028020252438380
  0.5780497697380538  0.5530312666140558  0.0013196339808345
  0.4103862592346388  0.6076955126038223  0.1610157126485899
  0.6059416557976939  0.4004809860303978  0.1702729058956196
  0.7639111411037984  0.4448108487036455  0.0047008348115687
  0.9087848297252838  0.5634228253879832  0.0058808159493916
  0.7268027900576716  0.6001858495198277  0.1650858125571483
  0.9287016631401838  0.3930197705749294  0.1620638446976252
  0.0924830368890302  0.7726527866655110  0.0244875105577234
  0.2241631291882661  0.9050555823669830  0.0141487194073257
  0.0651999595342366  0.9479884977233476  0.1595199584110450
  0.2642726630098410  0.7218328112636817  0.1732454216611050
  0.4391345224092323  0.7658602553267537  0.0000431597677062
  0.5718669823895260  0.8922338122503261  0.0120777047902535
  0.4037437878231215  0.9479450567446969  0.1538265090054849
  0.5892784325518776  0.7179728173485972  0.1776601008796892
  0.7668846397632869  0.7783681383372466  0.0253633394357893
  0.8880909610460181  0.9082937251758928  0.0050314466215682
  0.7489749264695217  0.9477733917621005  0.1767472745377559
  0.9390095280627894  0.7343990225734909  0.1745008184229203
  0.1028141188654628  0.1145806815730092  0.3346227824684184
  0.2326825077495460  0.2327147079625737  0.3272582823939644
  0.0594943950925585  0.2643939024822791  0.4959225527060682
  0.2765147247576885  0.0581702767605101  0.4965996379200170
  0.4252439036846689  0.1144299430395209  0.3126977385941344
  0.5543191304026119  0.2285133731317310  0.3195160555046042
  0.3979928464576254  0.2667194079457032  0.4969557645702508
  0.6063840526185063  0.0713352798083017  0.4976309755385550
  0.7665041239752901  0.1018187928035940  0.3370601950673980
  0.8784888775735373  0.2471101728460280  0.3267387932445567
  0.7256235420002487  0.2734049805487050  0.4967651541013752
  0.9266172567021915  0.0648230651116885  0.5081565057510986
  0.0992848728180212  0.4337344457689130  0.3239169101125067
  0.2316976590817940  0.5752699873305337  0.3237597654489391
  0.0600243317279682  0.5983950727625886  0.4975149473512589
  0.2786802762793615  0.4083722637109702  0.4990586261746070
  0.4283283442074992  0.4354238316706199  0.3377004069771514
  0.5734382821325932  0.5620159821617330  0.3500833430645227
  0.4032977310518743  0.6102350583185600  0.4905495642304745
  0.5955542093209011  0.3894126401118075  0.4977093408014640
  0.7692938666326263  0.4329727635096564  0.3355239913439177
  0.8926645310137590  0.5660084190317737  0.3412702151891587
  0.7435054835442316  0.6037716846753520  0.5031912713277745
  0.9364978412596910  0.3996861631965807  0.4936487692170111
  0.1079846769674156  0.7657743235374589  0.3364982053219551
  0.2371662458195602  0.8946878451065696  0.3248803523322569
  0.0755992058831911  0.9405666669924864  0.5068012043923887
  0.2812106666924702  0.7329743483472672  0.4978831121965949
  0.4490506077854336  0.7634177404656030  0.3331869520304033
  0.5646848572756944  0.9098295835718349  0.3236318607517328
  0.3983493865543601  0.9228285151246757  0.4985583143690243
  0.6000922470890829  0.7269459910623253  0.5072744354203008
  0.7622551869831837  0.7791861511469620  0.3278645456911090
  0.9107448263236867  0.8917034587650760  0.3475422830421458
  0.7105812167241973  0.9174576642040112  0.5103096715754927
  0.9265368721498551  0.7364187550305932  0.5134568991201967
  0.1047186391039654  0.0980752851912408  0.6557641986526019
  0.2438529589846221  0.2211524102990509  0.6524242527388974
  0.0786386536308713  0.2790980291534985  0.8254104733924624
  0.2683306274984990  0.0540565934186686  0.8530073034060975
  0.4304140504836370  0.0958140556036291  0.6539101923720922
  0.5549289362933151  0.2330194522493647  0.6756410449013983
  0.3987606290679184  0.2680748338556815  0.8363462428699351
  0.6054072388573443  0.0741173095971338  0.8360985137024621
  0.7604896151565209  0.1042899243785887  0.6587834809037394
  0.8881954078870221  0.2369374290547388  0.6659089893280220
  0.7269834887232069  0.2751274441528920  0.8253496334314350
  0.9268041897123847  0.0709704689364187  0.8448396808230367
  0.0967871218629018  0.4346657037006140  0.6565386440576517
  0.2308234012708578  0.5612972393406039  0.6474921097198185
  0.0629102518707578  0.6012716582288021  0.8375344527089579
  0.2845788523813685  0.4006577356701018  0.8156779131386721
  0.4510285694471588  0.4199608146903496  0.6640792831183193
  0.5622873214451203  0.5611285609042365  0.6844703169442056
  0.3919671290928265  0.6025027714934915  0.8390056052488829
  0.6056789028977783  0.3939615791531749  0.8332956859624535
  0.7721440759414926  0.4366291033795355  0.6730476546904134
  0.9053605478805040  0.5568822680262457  0.6673276663719976
  0.7401679041193401  0.6096653630362405  0.8476491056115304
  0.9373582466102836  0.3940215616928716  0.8397245592453259
  0.1033247971424922  0.7759209567345949  0.6628152591458029
  0.2316147669161284  0.9103418897410944  0.6893082819237748
  0.0668919268018257  0.9359578798533987  0.8353253910665168
  0.2575495966007113  0.7291503139287232  0.8365556448941367
  0.4331077602993970  0.7700223069840200  0.6653197024260400
  0.5489397901226479  0.9176562676901273  0.6789382833275737
  0.3874722900239173  0.9173690258846118  0.8635583545997203
  0.6029481284970726  0.7322530801401611  0.8247496407572196
  0.7556957060360450  0.7801219461886325  0.6775551650258760
  0.8961038989155584  0.8955955758872853  0.6850705733994163
  0.7213837053347667  0.9312164564979649  0.8245924281507053
  0.9293245767042555  0.7334663989292246  0.8435799308717261
 
  0.16289594E-02 -0.49178194E-03 -0.23960100E-02
  0.55926143E-02 -0.28906510E-02  0.58582583E-03
  0.15082768E-02  0.50626034E-02  0.80877517E-03
 -0.28130693E-02 -0.17841670E-02 -0.12772181E-02
 -0.17012086E-02 -0.26379078E-02 -0.27009802E-02
 -0.38201703E-02 -0.23106310E-03 -0.15745352E-02
  0.28060998E-02  0.76920865E-03 -0.10532668E-02
  0.26666099E-02 -0.16556186E-03  0.30938866E-02
 -0.14026970E-02 -0.29573363E-02 -0.23258514E-02
 -0.41490487E-02  0.24908374E-02 -0.10387220E-02
 -0.21581554E-02  0.54528120E-03  0.24452542E-02
  0.18292597E-02 -0.14563841E-02 -0.31879237E-02
  0.23769943E-02  0.25121427E-03 -0.70582824E-03
 -0.71555260E-03  0.23191278E-02  0.21303962E-02
  0.99551269E-03  0.43987210E-03  0.28348605E-02
 -0.12281193E-03  0.19218159E-02 -0.15453116E-03
  0.21071995E-02  0.48547834E-02 -0.25894750E-02
 -0.70324091E-04  0.30523308E-02  0.37163186E-02
 -0.73440145E-03 -0.21191746E-03  0.27926760E-02
 -0.44355348E-03 -0.12837062E-02  0.16004106E-02
 -0.23990224E-03  0.26614691E-02  0.45438400E-02
 -0.23021305E-02 -0.31870691E-02  0.85126293E-03
  0.25819801E-02  0.24591106E-02 -0.26508097E-02
  0.15390673E-03  0.10341851E-02 -0.11541635E-02
 -0.66597634E-03  0.62317525E-03  0.19141902E-02
 -0.34793152E-03 -0.91867456E-03 -0.61698496E-04
 -0.11326893E-02 -0.16020654E-02 -0.58602713E-03
 -0.28762031E-02 -0.33735463E-02  0.26290789E-02
  0.13418382E-02 -0.42894151E-02  0.12494630E-02
  0.27828842E-02  0.95052825E-03  0.10336429E-02
 -0.19830273E-02  0.27225532E-02  0.11681979E-02
 -0.32173382E-02 -0.33734819E-02 -0.16179726E-02
  0.38003597E-02 -0.46405403E-03 -0.18534791E-02
  0.16685439E-02 -0.33034578E-02 -0.74700638E-03
 -0.34027756E-03  0.15661723E-02 -0.17405575E-02
 -0.12072174E-03 -0.30021622E-02  0.23325135E-02
  0.11640856E-03  0.24031257E-02 -0.24872277E-03
  0.15072296E-02  0.47662374E-03 -0.46261691E-02
 -0.26714098E-02  0.21140627E-02 -0.26980305E-02
 -0.42174312E-02  0.52021144E-03  0.46908761E-04
 -0.33102246E-02  0.45720805E-02 -0.13431003E-02
  0.35082283E-02  0.13281853E-02  0.32707497E-02
 -0.16363847E-02  0.17067716E-02  0.25155361E-02
  0.37910018E-02 -0.16660570E-02  0.20004239E-02
  0.31495208E-05 -0.45326490E-02 -0.11394004E-02
 -0.13430849E-02  0.19232564E-02  0.10294281E-02
  0.16317891E-02  0.38667920E-03 -0.15045753E-02
 -0.13145312E-02 -0.24034441E-03 -0.72383165E-03
  0.56615525E-02 -0.18549940E-02 -0.88718505E-03
  0.90149006E-03 -0.19167475E-02 -0.35540829E-03
 -0.49542002E-03  0.79757142E-03  0.45581751E-02
  0.23660293E-03  0.93247346E-03  0.26387397E-02
 -0.46674795E-02  0.18659278E-02  0.97700227E-04
  0.56682613E-02 -0.63212067E-02 -0.28828214E-02
 -0.32617650E-02  0.44435780E-02 -0.94779138E-02
 -0.86610489E-02  0.56737363E-02  0.23704987E-02
 -0.43759237E-02  0.97977488E-02  0.29282592E-02
  0.42469928E-02 -0.12045533E-02 -0.21846281E-02
 -0.20652702E-02  0.36716609E-03 -0.87806466E-02
  0.78990014E-02 -0.27149268E-02 -0.14195725E-02
  0.19644284E-02 -0.66721810E-02  0.22598367E-02
  0.16110163E-04  0.12953572E-01 -0.15162581E-02
 -0.57067949E-02 -0.50832696E-02 -0.13660088E-01
 -0.18994969E-02 -0.14455671E-01  0.19418628E-02
 -0.99997366E-02  0.63753567E-03  0.18877336E-02
 -0.79048722E-02  0.13407692E-01 -0.19256724E-02
 -0.70814119E-02 -0.69491908E-02  0.41457811E-04
  0.68329040E-02 -0.43656226E-03  0.14100524E-01
 -0.15132987E-02 -0.75489713E-02 -0.52149017E-02
 -0.51555413E-04 -0.28721885E-02 -0.86996726E-03
 -0.78630259E-03 -0.59151091E-02 -0.70013893E-02
 -0.17107549E-02  0.24031125E-02 -0.15029314E-01
  0.33021120E-02  0.57733086E-02  0.10133911E-01
 -0.28220141E-02 -0.47912757E-02  0.49350366E-02
  0.54491837E-02  0.18971257E-03 -0.10335658E-01
 -0.48981913E-02 -0.63360644E-02 -0.45210225E-02
  0.38637213E-02 -0.71089739E-02 -0.98412945E-02
 -0.84460507E-02 -0.96021214E-02 -0.69613763E-02
 -0.24995705E-02 -0.12859447E-03 -0.28344240E-03
  0.71952559E-02 -0.61265571E-02  0.60080073E-02
 -0.88605916E-03  0.34581467E-04 -0.86146946E-03
  0.93563614E-02 -0.28257663E-02 -0.26655307E-02
 -0.40171298E-02 -0.81677583E-02  0.35061064E-02
  0.92095828E-02  0.14745269E-02 -0.22358068E-03
  0.12506361E-01 -0.32153570E-02  0.18693483E-02
 -0.10360002E-01 -0.21224802E-02  0.30069356E-03
 -0.24420735E-03  0.38564376E-02  0.78991443E-02
  0.33929968E-02 -0.50141784E-02  0.10522420E-01
 -0.10875967E-01 -0.16719697E-02 -0.13724265E-01
  0.21946990E-02 -0.87748753E-02  0.38829688E-02
  0.77995299E-02  0.12550146E-03 -0.14584166E-03
 -0.29485999E-02 -0.45167537E-02 -0.28026718E-02
 -0.28462134E-02  0.14288724E-01  0.73562264E-02
  0.64397927E-03 -0.66677563E-02  0.57883765E-03
 -0.34952611E-02 -0.11213210E-01 -0.10791671E-01
 -0.10991104E-01  0.27991585E-02  0.27438791E-03
  0.17286367E-02 -0.13262694E-01  0.14736369E-01
  0.13870554E-01  0.29702957E-02 -0.20179416E-02
 -0.49921212E-02  0.14492576E-01  0.10879549E-02
  0.10113985E-02 -0.15272844E-02 -0.19712123E-02
 -0.41869727E-02 -0.89159316E-02  0.13152151E-02
 -0.46783663E-02  0.42679885E-02  0.96647527E-03
  0.57492689E-02 -0.63203589E-02 -0.41769983E-02
 -0.54683660E-02 -0.76755344E-02  0.60754322E-03
 -0.12227229E-01 -0.12235687E-02 -0.15472916E-02
 -0.13057358E-03 -0.84159306E-02  0.64910140E-02
 -0.76076979E-02  0.13107296E-01 -0.14153197E-01
 -0.62739497E-02  0.11723207E-02  0.96585300E-02
 -0.67309172E-02 -0.17669353E-02 -0.30967656E-02
 -0.55918742E-02  0.78459725E-03 -0.70292726E-03
  0.79043468E-02 -0.20460109E-02  0.62751545E-02
  0.24182530E-02  0.63788226E-02 -0.61726391E-02
 -0.15316131E-02  0.45792778E-02  0.51677126E-02
  0.39898165E-02 -0.10303588E-01  0.76655704E-03
 -0.59200456E-02 -0.25002480E-02  0.10841880E-01
  0.67647067E-02  0.44866030E-02 -0.89786125E-03
 -0.10117848E-01 -0.58711990E-03 -0.72953252E-02
  0.88537516E-03 -0.72811897E-02 -0.11657043E-02
  0.34459933E-02  0.58687083E-04  0.29095317E-03
  0.43743843E-02  0.10232886E-01  0.11235426E-01
  0.75931547E-02  0.44212871E-02  0.53317344E-02
 -0.82564798E-02 -0.37418187E-02 -0.55377729E-02
  0.40515056E-02  0.14001370E-01 -0.10177409E-02
  0.12028836E-01  0.28685949E-02 -0.39023652E-02
  0.64930378E-04  0.39963398E-02  0.82001156E-03
  0.92931992E-02  0.36953517E-02 -0.25424918E-02
  0.30054983E-02 -0.96428339E-03  0.86390371E-02
  0.28208780E-02 -0.66337391E-03  0.76890024E-03
 -0.20946162E-02  0.15018282E-02  0.69105323E-02
 -0.42986198E-02  0.60288890E-02 -0.74238385E-02
 -0.11058621E-02 -0.63597643E-02 -0.16219097E-01
  0.28327211E-02 -0.34081147E-02  0.94418578E-02
  0.53123192E-03  0.82859813E-03  0.50197414E-02
 -0.12188217E-02  0.94051859E-02 -0.10663316E-02
 -0.36020940E-02  0.58314291E-03  0.27453216E-02
  0.17423955E-02  0.58415501E-02 -0.59684913E-02
  0.12349141E-02  0.29847342E-02 -0.23896551E-04
  0.10164712E-02 -0.17156274E-01  0.38958415E-02
 -0.54792941E-02  0.12538298E-02 -0.38610026E-02
  0.35737616E-02  0.29745292E-02 -0.32513921E-02
  0.10914374E-02  0.39162785E-02 -0.94296255E-02
 -0.15582460E-02 -0.52529921E-03 -0.47553008E-02
  0.13770962E-03  0.10133973E-01 -0.11691711E-02
  0.34034486E-02  0.25238881E-02  0.31457080E-02
  0.45222259E-02  0.14698555E-02 -0.25359788E-01
 -0.23773399E-02 -0.25269870E-03 -0.15565361E-02
  0.71897304E-02 -0.20906849E-02 -0.32267993E-02
 -0.69528830E-02 -0.23404674E-02  0.43041119E-02
 -0.38173240E-02 -0.31631988E-02  0.92312146E-03
  0.23451477E-02  0.36037747E-02  0.16368503E-02
 -0.14598312E-02  0.77093698E-02  0.52739926E-02
  0.50529506E-02 -0.31960597E-02 -0.60146847E-02
  0.30614237E-02 -0.34420473E-02  0.69321420E-03
  0.39075861E-02 -0.93396499E-02 -0.14398998E-02
  0.46646942E-02  0.40983181E-02  0.13228447E-02
 -0.87130601E-02  0.45957684E-02 -0.58042174E-02
  0.82599108E-02  0.98218087E-03  0.21605461E-02
  0.66091033E-02  0.13221886E-02 -0.19407767E-03
  0.73320202E-03  0.31726148E-02 -0.16356764E-02
 -0.20038787E-02  0.10009674E-01  0.25461943E-02
 -0.88281039E-02 -0.30578631E-02  0.13760728E-01
  0.45126766E-03  0.14259947E-02 -0.44873166E-02
 
           1
   1.00000000000000     
  0.93157034E+00  0.65805767E-03 -0.13479036E-03  0.00000000E+00
  0.36320510E-03  0.10722494E-01  0.51648609E-02
  0.16519557E+00  0.17204361E+00  0.15624777E+00
  0.49596079E+00  0.16620850E+00  0.15642175E+00
  0.66963971E+00  0.98861409E+00  0.99615820E+00
  0.83204970E+00  0.16523843E+00  0.16366176E+00
  0.12611414E-01  0.32523267E+00  0.99442424E+00
  0.16111564E+00  0.51515671E+00  0.16781316E+00
  0.33604740E+00  0.33530065E+00  0.12561413E-02
  0.49743256E+00  0.49602842E+00  0.17798553E+00
  0.66452330E+00  0.33325976E+00  0.99852612E+00
  0.82900660E+00  0.50415203E+00  0.16938307E+00
  0.76044471E-03  0.66677082E+00  0.87939086E-03
  0.16043609E+00  0.83076425E+00  0.16897609E+00
  0.33812501E+00  0.66287727E+00  0.99951181E+00
  0.49306246E+00  0.83335296E+00  0.16538288E+00
  0.66140621E+00  0.66804425E+00  0.68202666E-02
  0.83679103E+00  0.83971373E+00  0.17351981E+00
  0.99701198E+00  0.23098714E-02  0.33717763E+00
  0.17140484E+00  0.16221405E+00  0.49504607E+00
  0.33582638E+00  0.99179762E+00  0.33216544E+00
  0.49972674E+00  0.16717152E+00  0.48501070E+00
  0.67253686E+00  0.16514730E-02  0.32823035E+00
  0.82529189E+00  0.17607824E+00  0.50129955E+00
  0.99316037E+00  0.33195396E+00  0.32850966E+00
  0.16130312E+00  0.49926005E+00  0.49025808E+00
  0.32947142E+00  0.33409591E+00  0.32333297E+00
  0.49689956E+00  0.49942638E+00  0.50117263E+00
  0.67037264E+00  0.32907116E+00  0.32423933E+00
  0.83277842E+00  0.49805284E+00  0.50350962E+00
  0.98657793E+00  0.67018048E+00  0.34071327E+00
  0.18058971E+00  0.83215341E+00  0.51142007E+00
  0.33940943E+00  0.67465699E+00  0.33062479E+00
  0.51744091E+00  0.83543433E+00  0.49383288E+00
  0.67245920E+00  0.67146727E+00  0.35086818E+00
  0.83210163E+00  0.84003944E+00  0.50555890E+00
  0.99447556E+00  0.99399375E+00  0.66060538E+00
  0.17571890E+00  0.16568922E+00  0.82383609E+00
  0.34174435E+00  0.99803540E+00  0.67827739E+00
  0.50006739E+00  0.16718240E+00  0.83673542E+00
  0.65506940E+00  0.11466916E-01  0.66297001E+00
  0.82875101E+00  0.16960902E+00  0.82559394E+00
  0.99532348E+00  0.32780588E+00  0.66080797E+00
  0.17993752E+00  0.49854645E+00  0.82135096E+00
  0.33243633E+00  0.33276920E+00  0.66411630E+00
  0.49964783E+00  0.48928896E+00  0.83340792E+00
  0.66835300E+00  0.33137378E+00  0.66058446E+00
  0.84443412E+00  0.49064645E+00  0.84266387E+00
  0.21327252E-02  0.66066648E+00  0.66701291E+00
  0.16190700E+00  0.83726519E+00  0.85304369E+00
  0.33545265E+00  0.65846457E+00  0.66348727E+00
  0.49359088E+00  0.83245731E+00  0.83212562E+00
  0.67294980E+00  0.66167764E+00  0.67691137E+00
  0.82684666E+00  0.82930594E+00  0.84286788E+00
  0.32766283E+00  0.98807537E+00  0.63170848E-02
  0.10383296E+00  0.10518118E+00  0.98787620E+00
  0.22914811E+00  0.23542456E+00  0.99218704E+00
  0.76639752E-01  0.27895402E+00  0.15833398E+00
  0.25929539E+00  0.56753779E-01  0.16634126E+00
  0.43646582E+00  0.98755392E-01  0.98865244E+00
  0.56193140E+00  0.23639302E+00  0.99875311E+00
  0.39688653E+00  0.27525841E+00  0.16904767E+00
  0.60236665E+00  0.64942476E-01  0.16145897E+00
  0.76407273E+00  0.94508589E-01  0.99262828E+00
  0.88719661E+00  0.23588123E+00  0.99869005E+00
  0.71960167E+00  0.26581575E+00  0.15129265E+00
  0.93260943E+00  0.69843472E-01  0.16811057E+00
  0.12080970E+00  0.43275843E+00  0.98339796E+00
  0.22044324E+00  0.58292730E+00  0.98323967E+00
  0.54994258E-01  0.60179395E+00  0.17897451E+00
  0.26864716E+00  0.40762380E+00  0.15086905E+00
  0.43125714E+00  0.44155657E+00  0.20818888E-02
  0.57793132E+00  0.55319766E+00  0.99977378E+00
  0.41061493E+00  0.60809530E+00  0.16205805E+00
  0.60574623E+00  0.40014920E+00  0.17078051E+00
  0.76428847E+00  0.44482400E+00  0.36377482E-02
  0.90844563E+00  0.56298407E+00  0.54158007E-02
  0.72707031E+00  0.59969360E+00  0.16407357E+00
  0.92811678E+00  0.39235484E+00  0.16134782E+00
  0.92309954E-01  0.77264387E+00  0.24458357E-01
  0.22466134E+00  0.90463137E+00  0.14766680E-01
  0.65138604E-01  0.94799089E+00  0.15943135E+00
  0.26492053E+00  0.72163717E+00  0.17297126E+00
  0.43885633E+00  0.76529466E+00  0.40378460E-03
  0.57250471E+00  0.89233595E+00  0.12054708E-01
  0.40460978E+00  0.94772245E+00  0.15401878E+00
  0.58856105E+00  0.71782581E+00  0.17769103E+00
  0.76686774E+00  0.77863518E+00  0.26175816E-01
  0.88832589E+00  0.90794653E+00  0.61137429E-02
  0.74822181E+00  0.94765758E+00  0.17533565E+00
  0.93916147E+00  0.73379141E+00  0.17490021E+00
  0.10335420E+00  0.11458940E+00  0.33460778E+00
  0.23247832E+00  0.23240193E+00  0.32697001E+00
  0.59297360E-01  0.26538331E+00  0.49667919E+00
  0.27655929E+00  0.57708570E-01  0.49665917E+00
  0.42500183E+00  0.11365347E+00  0.31158775E+00
  0.55355806E+00  0.22870716E+00  0.31954428E+00
  0.39811250E+00  0.26580104E+00  0.49847149E+00
  0.60734453E+00  0.71541008E-01  0.49742342E+00
  0.76615850E+00  0.10282231E+00  0.33717210E+00
  0.87855891E+00  0.24700442E+00  0.32653604E+00
  0.72533358E+00  0.27278758E+00  0.49690043E+00
  0.92629332E+00  0.65118585E-01  0.50825591E+00
  0.99682958E-01  0.43329681E+00  0.32348728E+00
  0.23131897E+00  0.57473848E+00  0.32382226E+00
  0.59177653E-01  0.59831030E+00  0.49735580E+00
  0.27867120E+00  0.40778950E+00  0.49972627E+00
  0.42780160E+00  0.43633142E+00  0.33624466E+00
  0.57300385E+00  0.56209714E+00  0.35107678E+00
  0.40283164E+00  0.61011268E+00  0.49023104E+00
  0.59516700E+00  0.38946695E+00  0.49763704E+00
  0.76984120E+00  0.43283112E+00  0.33616943E+00
  0.89283201E+00  0.56645013E+00  0.34063532E+00
  0.74339944E+00  0.60408877E+00  0.50372280E+00
  0.93677408E+00  0.39897271E+00  0.49372761E+00
  0.10757473E+00  0.76560117E+00  0.33761336E+00
  0.23763468E+00  0.89499854E+00  0.32478800E+00
  0.74898593E-01  0.94052598E+00  0.50605083E+00
  0.28127195E+00  0.73247017E+00  0.49776321E+00
  0.44928923E+00  0.76342182E+00  0.33321688E+00
  0.56498780E+00  0.91053818E+00  0.32478749E+00
  0.39887519E+00  0.92313469E+00  0.49910672E+00
  0.59952051E+00  0.72668686E+00  0.50670484E+00
  0.76253578E+00  0.78015569E+00  0.32775986E+00
  0.91157777E+00  0.89190214E+00  0.34714090E+00
  0.71058573E+00  0.91773439E+00  0.51039401E+00
  0.92718039E+00  0.73667467E+00  0.51319539E+00
  0.10492675E+00  0.98008524E-01  0.65665278E+00
  0.24404829E+00  0.22110649E+00  0.65250334E+00
  0.78493617E-01  0.27920202E+00  0.82612126E+00
  0.26803299E+00  0.54474048E-01  0.85224372E+00
  0.43033745E+00  0.95373670E-01  0.65224196E+00
  0.55512508E+00  0.23278347E+00  0.67661220E+00
  0.39879742E+00  0.26813221E+00  0.83686255E+00
  0.60532288E+00  0.74768567E-01  0.83598883E+00
  0.76024019E+00  0.10433029E+00  0.65906585E+00
  0.88831608E+00  0.23734193E+00  0.66529509E+00
  0.72706901E+00  0.27533413E+00  0.82534718E+00
  0.92687451E+00  0.69782487E-01  0.84524039E+00
  0.96407713E-01  0.43475251E+00  0.65614152E+00
  0.23107088E+00  0.56150322E+00  0.64715768E+00
  0.62985842E-01  0.60154284E+00  0.83656456E+00
  0.28447095E+00  0.40062136E+00  0.81518880E+00
  0.45103814E+00  0.42066254E+00  0.66395903E+00
  0.56252300E+00  0.56130334E+00  0.68479387E+00
  0.39228028E+00  0.60260457E+00  0.83639719E+00
  0.60551428E+00  0.39394407E+00  0.83313559E+00
  0.77264192E+00  0.43648436E+00  0.67271576E+00
  0.90487909E+00  0.55672018E+00  0.66777037E+00
  0.73990356E+00  0.60944631E+00  0.84774405E+00
  0.93752065E+00  0.39427111E+00  0.83989292E+00
  0.10322374E+00  0.77645479E+00  0.66335772E+00
  0.23196465E+00  0.91012060E+00  0.68868963E+00
  0.67103903E-01  0.93571955E+00  0.83539669E+00
  0.25782014E+00  0.72850360E+00  0.83640754E+00
  0.43343078E+00  0.77030611E+00  0.66545577E+00
  0.54833647E+00  0.91797447E+00  0.67834128E+00
  0.38804425E+00  0.91743707E+00  0.86378058E+00
  0.60340578E+00  0.73234466E+00  0.82472968E+00
  0.75574649E+00  0.78034164E+00  0.67738693E+00
  0.89596518E+00  0.89628869E+00  0.68533247E+00
  0.72077239E+00  0.93100468E+00  0.82600780E+00
  0.92935583E+00  0.73356514E+00  0.84311838E+00
  0.11546238E-03 -0.30077827E-04 -0.23673780E-03
  0.38243198E-03 -0.19416872E-03  0.55048809E-04
  0.10311943E-03  0.35309838E-03  0.87626907E-04
 -0.19496272E-03 -0.12879750E-03 -0.13446649E-03
 -0.11303255E-03 -0.18337011E-03 -0.27331771E-03
 -0.26002514E-03 -0.22149975E-04 -0.16115866E-03
  0.19093475E-03  0.57853268E-04 -0.98909873E-04
  0.18616448E-03 -0.10829675E-04  0.32197207E-03
 -0.10248262E-03 -0.20786383E-03 -0.23460713E-03
 -0.28674978E-03  0.16849752E-03 -0.10262730E-03
 -0.15175401E-03  0.39373670E-04  0.25181856E-03
  0.12731467E-03 -0.10078105E-03 -0.33028315E-03
  0.16116941E-03  0.14554383E-04 -0.85253107E-04
 -0.44022579E-04  0.15677122E-03  0.21578548E-03
  0.63156063E-04  0.30624911E-04  0.29111741E-03
 -0.85461742E-05  0.13245487E-03 -0.15328488E-04
  0.14214587E-03  0.33701818E-03 -0.26598505E-03
 -0.10773568E-04  0.20930538E-03  0.38084955E-03
 -0.51423084E-04 -0.14376730E-04  0.28794372E-03
 -0.31068598E-04 -0.94634587E-04  0.16411890E-03
 -0.12818711E-04  0.18356214E-03  0.46039937E-03
 -0.15495611E-03 -0.21958414E-03  0.84551303E-04
  0.17652961E-03  0.17546938E-03 -0.26785655E-03
  0.83809386E-05  0.69571524E-04 -0.11759103E-03
 -0.47415784E-04  0.45378530E-04  0.19940659E-03
 -0.22954426E-04 -0.64964430E-04 -0.14312349E-04
 -0.81769613E-04 -0.11009923E-03 -0.63094097E-04
 -0.19416753E-03 -0.23616355E-03  0.26844377E-03
  0.90965515E-04 -0.29445779E-03  0.12718466E-03
  0.18679576E-03  0.64212911E-04  0.10345763E-03
 -0.13496219E-03  0.18500096E-03  0.12383155E-03
 -0.22174004E-03 -0.23006603E-03 -0.16328665E-03
  0.26923691E-03 -0.36226468E-04 -0.19736214E-03
  0.11808210E-03 -0.22488402E-03 -0.62096356E-04
 -0.19612072E-04  0.10931721E-03 -0.18514463E-03
 -0.12900214E-04 -0.21023970E-03  0.23036276E-03
  0.10312332E-04  0.16843531E-03 -0.24594959E-04
  0.10869709E-03  0.37636823E-04 -0.47272054E-03
 -0.18338382E-03  0.14620270E-03 -0.27340972E-03
 -0.29456408E-03  0.41295420E-04 -0.24088418E-05
 -0.22528803E-03  0.31857983E-03 -0.14775514E-03
  0.23816752E-03  0.87314007E-04  0.33560207E-03
 -0.10722224E-03  0.11741400E-03  0.25759662E-03
  0.25546650E-03 -0.11112370E-03  0.21630655E-03
 -0.20574780E-05 -0.31645474E-03 -0.12253159E-03
 -0.86171951E-04  0.12932587E-03  0.10180356E-03
  0.11818455E-03  0.19740901E-04 -0.15359684E-03
 -0.91141236E-04 -0.20257429E-04 -0.78709706E-04
  0.38905427E-03 -0.12587667E-03 -0.80567757E-04
  0.62458548E-04 -0.13896788E-03 -0.39045601E-04
 -0.39337741E-04  0.57396033E-04  0.46903270E-03
  0.17112690E-04  0.65297615E-04  0.26983276E-03
 -0.32223745E-03  0.12659358E-03  0.65125574E-05
  0.39839465E-03 -0.45070337E-03 -0.29722961E-03
 -0.22132269E-03  0.29332740E-03 -0.98335379E-03
 -0.61313645E-03  0.38639022E-03  0.24558969E-03
 -0.28103490E-03  0.67900679E-03  0.26289935E-03
  0.27857830E-03 -0.84051831E-04 -0.20361926E-03
 -0.13144045E-03  0.32699236E-04 -0.92432084E-03
  0.55750966E-03 -0.18494501E-03 -0.14909091E-03
  0.12372024E-03 -0.44997123E-03  0.27250891E-03
 -0.48493954E-05  0.90304902E-03 -0.15451494E-03
 -0.41477475E-03 -0.38167044E-03 -0.14128299E-02
 -0.15339916E-03 -0.10012879E-02  0.20680230E-03
 -0.72821654E-03  0.75108701E-04  0.14343939E-03
 -0.55345995E-03  0.92467687E-03 -0.23160154E-03
 -0.46550808E-03 -0.47561048E-03 -0.32997811E-04
  0.46608475E-03 -0.90804399E-05  0.14052294E-02
 -0.10195755E-03 -0.52922683E-03 -0.51421226E-03
 -0.12147909E-05 -0.19776118E-03 -0.12498709E-03
 -0.57178575E-04 -0.40251988E-03 -0.72471060E-03
 -0.84356056E-04  0.17527310E-03 -0.15432033E-02
  0.24109358E-03  0.40112369E-03  0.10187093E-02
 -0.17940499E-03 -0.33353166E-03  0.51338433E-03
  0.37793249E-03  0.30947425E-04 -0.10485374E-02
 -0.31242310E-03 -0.41944811E-03 -0.46813459E-03
  0.26049258E-03 -0.50839624E-03 -0.10605743E-02
 -0.60321562E-03 -0.66561655E-03 -0.70406099E-03