CONTCAR-jianxi                          
   1.00000000000000     
    14.4746026128251408   -0.0030957227831611    0.0000088347402303
    -0.0030551291343910   14.6066467328938430   -0.0000522910293426
     0.0000057658895130   -0.0000350004245160    9.7872285547428870
   Sn   O    Ti
    54   108     1
Direct
  0.9957183103892808  0.0073220548205237  0.9971169160571857
  0.1661591840470666  0.1690830302688969  0.1666686568488829
  0.3359967969218925  0.0113033606489328  0.9938315563681234
  0.5043727789378197  0.1706059658682904  0.1666540134945628
  0.6676148860470191  0.0014163166564131  0.9994177826080288
  0.8321702708747497  0.1692217721669813  0.1666543847694844
  0.9989623228371887  0.3335996337891795  0.9997886907291237
  0.1669004512300352  0.4979324909681871  0.1666474101853570
  0.3349569194801184  0.3333395937420658  0.9999015239223673
  0.5040347653433739  0.4970888595159529  0.1666514080968581
  0.6681649223972390  0.3329720861745266  0.9988485543177292
  0.8300754639603907  0.4961471284303862  0.1666264867961098
  0.9971378754796029  0.6582979348499700  0.9928990674421778
  0.1033051324449109  0.8162823213061617  0.1666652638166469
  0.3393549319775367  0.6559291232718304  0.9953251805508623
  0.5074984160422239  0.8322172856749378  0.1666741469046734
  0.6686874327961239  0.6653804844357495  0.9994484270310637
  0.8344789204320026  0.8368705260501358  0.1666725942375161
  0.9957138239707463  0.0073257790845725  0.3362292665324842
  0.1655826814814301  0.1694915788610785  0.5007340439881592
  0.3360079546869722  0.0113260998405533  0.3395709642696485
  0.5027466838168373  0.1682621802832882  0.5013172383339221
  0.6676130469780107  0.0014397149308763  0.3338621623703690
  0.8329016161833663  0.1672045296130690  0.5010878436150984
  0.9989781465525444  0.3336116398423331  0.3335617204351192
  0.1671537045888335  0.4970711665637718  0.5010876117865090
  0.3349555021481372  0.3333396757388977  0.3334164688288160
  0.5033178725536220  0.4977905329714631  0.5008702624223946
  0.6681734062057996  0.3329716735708155  0.3344848456283369
  0.8323895907136047  0.4999394121916848  0.5016043722706516
  0.9971540239949775  0.6583031602525532  0.3404242544460937
  0.1692714370932278  0.8326941776326848  0.5023055507525880
  0.3393583988606464  0.6559212924857151  0.3380736497368960
  0.4988013180792554  0.8344200655963128  0.4997693288047027
  0.6687023475414838  0.6653608835524231  0.3338390665586102
  0.8336937130356807  0.8326469283783621  0.5002387889637638
  0.0037694189441296  0.9979048262583590  0.6666864040037574
  0.1655838126603791  0.1694979249292801  0.8326218415893519
  0.3357118442758769  0.0020488407218880  0.6666849715642572
  0.5027594697652584  0.1682471335620235  0.8320104534214023
  0.6671980761645403  0.9989191273690303  0.6666313685024224
  0.8328952405085494  0.1671802589074482  0.8322231322528630
  0.9986436030356429  0.3341444701285585  0.6666745846385767
  0.1671302934979089  0.4970517112929111  0.8322278816382376
  0.3350670482269671  0.3328228267806138  0.6666695153054228
  0.5033157466210991  0.4978044282560368  0.8324578060071298
  0.6684200945650324  0.3329343626065495  0.6666686531890462
  0.8323859539391064  0.4999419874869747  0.8316465543855179
  0.9997899049702855  0.6660107689542157  0.6666563315068388
  0.1693025260122631  0.8327062326265632  0.8310914614014846
  0.3324878720849104  0.6667073681230679  0.6666841603750517
  0.4987770316360448  0.8344239356005135  0.8335715101548683
  0.6652199567938452  0.6684572638554636  0.6666429168919992
  0.8336896998230335  0.8326329371267247  0.8330914006046344
  0.1021159393936131  0.1042899820273175  0.9999027112241756
  0.2332015782788976  0.2303215722096122  0.9998874908052175
  0.0645901910427149  0.2705575836441678  0.1666687105426846
  0.2688344355452665  0.0649729112460107  0.1666951835491916
  0.4387587090226284  0.1058167431496460  0.0013866087233698
  0.5675136222611987  0.2313063534353255  0.9988256936816164
  0.4005349149346228  0.2700724240754908  0.1666625530374284
  0.6019862172640158  0.0644095378288199  0.1666343130063234
  0.7688292507127913  0.1031756904427908  0.9994823536645763
  0.8978972652570559  0.2311837436647858  0.9987427372676456
  0.7322288115669526  0.2704033927915461  0.1666682869016883
  0.9321071663685668  0.0691893567153158  0.1666650069724961
  0.1010876949756313  0.4360640617278189  0.0003701423591754
  0.2324498419658205  0.5616082668952325  0.9991625325316167
  0.0664852096760919  0.6044759318975116  0.1666639654455292
  0.2694092720609795  0.3967046606591595  0.1666445614838014
  0.4365179082141402  0.4360698545612655  0.9994359456740822
  0.5661251755906217  0.5636960466741303  0.9995496661336152
  0.4029935462327303  0.5986957243219291  0.1666903883870036
  0.6039332339570522  0.3960192753178386  0.1666627140798813
  0.7677536602106725  0.4356900688082847  0.9979701700497312
  0.8944586899641089  0.5634575337947783  0.0029817883555844
  0.7315516080469465  0.6009856094801159  0.1666407037032494
  0.9339873767247707  0.3972496372562168  0.1666728370091556
  0.0930116455182412  0.7624648452799022  0.9730090907461193
  0.2458865279756850  0.8954955614001502  0.9956129468629121
  0.0542914460260373  0.9454533848876232  0.1666752863484245
  0.2720250665250051  0.7165327507116390  0.1667173760379688
  0.4269106588242459  0.7740056143988165  0.0063920535288280
  0.5639646279874576  0.8984708735244983  0.0004024823472816
  0.3915370710988413  0.9337159065179141  0.1667398482197451
  0.6034377069902258  0.7290988367548910  0.1666607734065128
  0.7725744336699497  0.7672093535534265  0.0033519792550712
  0.8989447770012946  0.8990331564862278  0.9982168535962249
  0.7304675980099502  0.9357502350996042  0.1666513535866349
  0.9566906588873489  0.7451373189082187  0.1666720199463962
  0.1021193736175919  0.1042892171704173  0.3334415604077599
  0.2331997005323207  0.2303284873090760  0.3334598727215305
  0.0638790223880061  0.2702370700714757  0.4999021977349961
  0.2679392271514398  0.0669254475363129  0.5033789331011790
  0.4387531925343314  0.1058446923304086  0.3319492025197459
  0.5675016516279896  0.2313263597312303  0.3344832232494666
  0.3997970196856976  0.2689314874082477  0.4996637001958787
  0.6018609259915860  0.0636319066235971  0.5003469694718297
  0.7688458523115346  0.1031734670452583  0.3338264760746428
  0.8979090315689190  0.2311854594418847  0.3345712181921372
  0.7322529406784000  0.2690770122877877  0.5003282237100447
  0.9348953461636422  0.0648605913175059  0.5049051229868374
  0.1011172407403747  0.4360563105377658  0.3329613372736635
  0.2324742441760524  0.5615901718686013  0.3341515242907370
  0.0624496530112568  0.5960231619866849  0.5039519814104020
  0.2701906795206289  0.3968683086086044  0.4998661510379608
  0.4365155611024816  0.4360610709993940  0.3338749474424840
  0.5661257533092542  0.5636896261136741  0.3337703147324123
  0.4024739074028413  0.6011299582392878  0.5050402208173429
  0.6034442411176895  0.3963683287599575  0.5003114933104835
  0.7677427195650228  0.4357071761223441  0.3352929197057057
  0.8944737301406851  0.5634631358791553  0.3303042674533943
  0.7317889446191480  0.6036611725418176  0.5013502610604935
  0.9348506946608562  0.3986811198308521  0.4995709601475435
  0.0930281316010892  0.7624623009666572  0.3603244932117476
  0.2458621524946533  0.8955363647550247  0.3378275020135709
  0.0691940371639750  0.9381315576800608  0.4959193370404790
  0.2704187987531322  0.7283951024978366  0.4967855946242303
  0.4269243908054883  0.7739913114722345  0.3269836234792334
  0.5639733410031714  0.8984791660477888  0.3329221579746381
  0.4018301119270639  0.9412381833930759  0.5002453279436537
  0.5999466357187355  0.7312062468035181  0.4967981224711189
  0.7725750595641471  0.7672067830938687  0.3299986464970138
  0.8989251089008149  0.8990598873111257  0.3350762306878345
  0.7316402024462538  0.9350936959987347  0.4989980512026924
  0.9297944650818440  0.7251829975138454  0.5021884828605441
  0.1021432934459173  0.1035159118318104  0.6666837425918585
  0.2313214880482370  0.2325384573254685  0.6666725176037621
  0.0638921629249617  0.2702551624929343  0.8334532143071121
  0.2679178674753587  0.0669070981494580  0.8300350140825836
  0.4360777481702449  0.1050328885957685  0.6666669192931312
  0.5671629848396477  0.2313415699586093  0.6666637248765548
  0.3997992459269673  0.2689065802356025  0.8336723415186953
  0.6018762135137982  0.0636206785171683  0.8329469067452868
  0.7678725880354346  0.1023993461983443  0.6666418415243556
  0.8973512019577010  0.2319710063375889  0.6666759171895785
  0.7322446319498869  0.2690549883147222  0.8330030590792035
  0.9348898724901130  0.0648491352007153  0.8284551016446708
  0.1040194486890190  0.4321981298917245  0.6666572430849491
  0.2320409345436765  0.5632131681580217  0.6666819565629234
  0.0624242245458727  0.5960108147044451  0.8293707216506644
  0.2701887179997648  0.3968731261445057  0.8334673135001497
  0.4375543071745245  0.4343589043291964  0.6666790973908311
  0.5671350525959095  0.5633820005730334  0.6666648793291430
  0.4024794634759918  0.6011491466800195  0.8283477883504952
  0.6034327587499536  0.3963655147741064  0.8330137407340453
  0.7679490297272840  0.4356707194172007  0.6666362141547935
  0.8976844541482834  0.5629171118799807  0.6666226546292324
  0.7317892411973888  0.6036666252331597  0.8319474151489471
  0.9348721983784090  0.3987182647919077  0.8337542705141647
  0.1033915582483761  0.7685885165580301  0.6667027502760409
  0.2353204531958428  0.8966284646468118  0.6666900415305896
  0.0692113711911493  0.9381320851395679  0.8374532841852252
  0.2704555465706779  0.7284198103832943  0.8365905201894137
  0.4333055744530572  0.7708360530731136  0.6666650887291808
  0.5651427164209492  0.8964148789101584  0.6666727868177018
  0.4017631350580447  0.9411915920037524  0.8331196125948757
  0.5999381071895604  0.7312164105925532  0.8364748612513309
  0.7654889939863878  0.7718314428867953  0.6666599365547742
  0.9014984726771151  0.8951310815549615  0.6666733189196747
  0.7316466625800279  0.9350817573404060  0.8342761738336428
  0.9297523223070877  0.7251427889707642  0.8311158170072179
  0.2830166856085313  0.8423337661454023  0.1667519837230787
 
  0.00000000E+00  0.00000000E+00  0.00000000E+00
  0.00000000E+00  0.00000000E+00  0.00000000E+00
  0.00000000E+00  0.00000000E+00  0.00000000E+00
  0.00000000E+00  0.00000000E+00  0.00000000E+00
  0.00000000E+00  0.00000000E+00  0.00000000E+00
  0.00000000E+00  0.00000000E+00  0.00000000E+00
  0.00000000E+00  0.00000000E+00  0.00000000E+00
  0.00000000E+00  0.00000000E+00  0.00000000E+00
  0.00000000E+00  0.00000000E+00  0.00000000E+00
  0.00000000E+00  0.00000000E+00  0.00000000E+00
  0.00000000E+00  0.00000000E+00  0.00000000E+00
  0.00000000E+00  0.00000000E+00  0.00000000E+00
  0.00000000E+00  0.00000000E+00  0.00000000E+00
  0.00000000E+00  0.00000000E+00  0.00000000E+00
  0.00000000E+00  0.00000000E+00  0.00000000E+00
  0.00000000E+00  0.00000000E+00  0.00000000E+00
  0.00000000E+00  0.00000000E+00  0.00000000E+00
  0.00000000E+00  0.00000000E+00  0.00000000E+00
  0.00000000E+00  0.00000000E+00  0.00000000E+00
  0.00000000E+00  0.00000000E+00  0.00000000E+00
  0.00000000E+00  0.00000000E+00  0.00000000E+00
  0.00000000E+00  0.00000000E+00  0.00000000E+00
  0.00000000E+00  0.00000000E+00  0.00000000E+00
  0.00000000E+00  0.00000000E+00  0.00000000E+00
  0.00000000E+00  0.00000000E+00  0.00000000E+00
  0.00000000E+00  0.00000000E+00  0.00000000E+00
  0.00000000E+00  0.00000000E+00  0.00000000E+00
  0.00000000E+00  0.00000000E+00  0.00000000E+00
  0.00000000E+00  0.00000000E+00  0.00000000E+00
  0.00000000E+00  0.00000000E+00  0.00000000E+00
  0.00000000E+00  0.00000000E+00  0.00000000E+00
  0.00000000E+00  0.00000000E+00  0.00000000E+00
  0.00000000E+00  0.00000000E+00  0.00000000E+00
  0.00000000E+00  0.00000000E+00  0.00000000E+00
  0.00000000E+00  0.00000000E+00  0.00000000E+00
  0.00000000E+00  0.00000000E+00  0.00000000E+00
  0.00000000E+00  0.00000000E+00  0.00000000E+00
  0.00000000E+00  0.00000000E+00  0.00000000E+00
  0.00000000E+00  0.00000000E+00  0.00000000E+00
  0.00000000E+00  0.00000000E+00  0.00000000E+00
  0.00000000E+00  0.00000000E+00  0.00000000E+00
  0.00000000E+00  0.00000000E+00  0.00000000E+00
  0.00000000E+00  0.00000000E+00  0.00000000E+00
  0.00000000E+00  0.00000000E+00  0.00000000E+00
  0.00000000E+00  0.00000000E+00  0.00000000E+00
  0.00000000E+00  0.00000000E+00  0.00000000E+00
  0.00000000E+00  0.00000000E+00  0.00000000E+00
  0.00000000E+00  0.00000000E+00  0.00000000E+00
  0.00000000E+00  0.00000000E+00  0.00000000E+00
  0.00000000E+00  0.00000000E+00  0.00000000E+00
  0.00000000E+00  0.00000000E+00  0.00000000E+00
  0.00000000E+00  0.00000000E+00  0.00000000E+00
  0.00000000E+00  0.00000000E+00  0.00000000E+00
  0.00000000E+00  0.00000000E+00  0.00000000E+00
  0.00000000E+00  0.00000000E+00  0.00000000E+00
  0.00000000E+00  0.00000000E+00  0.00000000E+00
  0.00000000E+00  0.00000000E+00  0.00000000E+00
  0.00000000E+00  0.00000000E+00  0.00000000E+00
  0.00000000E+00  0.00000000E+00  0.00000000E+00
  0.00000000E+00  0.00000000E+00  0.00000000E+00
  0.00000000E+00  0.00000000E+00  0.00000000E+00
  0.00000000E+00  0.00000000E+00  0.00000000E+00
  0.00000000E+00  0.00000000E+00  0.00000000E+00
  0.00000000E+00  0.00000000E+00  0.00000000E+00
  0.00000000E+00  0.00000000E+00  0.00000000E+00
  0.00000000E+00  0.00000000E+00  0.00000000E+00
  0.00000000E+00  0.00000000E+00  0.00000000E+00
  0.00000000E+00  0.00000000E+00  0.00000000E+00
  0.00000000E+00  0.00000000E+00  0.00000000E+00
  0.00000000E+00  0.00000000E+00  0.00000000E+00
  0.00000000E+00  0.00000000E+00  0.00000000E+00
  0.00000000E+00  0.00000000E+00  0.00000000E+00
  0.00000000E+00  0.00000000E+00  0.00000000E+00
  0.00000000E+00  0.00000000E+00  0.00000000E+00
  0.00000000E+00  0.00000000E+00  0.00000000E+00
  0.00000000E+00  0.00000000E+00  0.00000000E+00
  0.00000000E+00  0.00000000E+00  0.00000000E+00
  0.00000000E+00  0.00000000E+00  0.00000000E+00
  0.00000000E+00  0.00000000E+00  0.00000000E+00
  0.00000000E+00  0.00000000E+00  0.00000000E+00
  0.00000000E+00  0.00000000E+00  0.00000000E+00
  0.00000000E+00  0.00000000E+00  0.00000000E+00
  0.00000000E+00  0.00000000E+00  0.00000000E+00
  0.00000000E+00  0.00000000E+00  0.00000000E+00
  0.00000000E+00  0.00000000E+00  0.00000000E+00
  0.00000000E+00  0.00000000E+00  0.00000000E+00
  0.00000000E+00  0.00000000E+00  0.00000000E+00
  0.00000000E+00  0.00000000E+00  0.00000000E+00
  0.00000000E+00  0.00000000E+00  0.00000000E+00
  0.00000000E+00  0.00000000E+00  0.00000000E+00
  0.00000000E+00  0.00000000E+00  0.00000000E+00
  0.00000000E+00  0.00000000E+00  0.00000000E+00
  0.00000000E+00  0.00000000E+00  0.00000000E+00
  0.00000000E+00  0.00000000E+00  0.00000000E+00
  0.00000000E+00  0.00000000E+00  0.00000000E+00
  0.00000000E+00  0.00000000E+00  0.00000000E+00
  0.00000000E+00  0.00000000E+00  0.00000000E+00
  0.00000000E+00  0.00000000E+00  0.00000000E+00
  0.00000000E+00  0.00000000E+00  0.00000000E+00
  0.00000000E+00  0.00000000E+00  0.00000000E+00
  0.00000000E+00  0.00000000E+00  0.00000000E+00
  0.00000000E+00  0.00000000E+00  0.00000000E+00
  0.00000000E+00  0.00000000E+00  0.00000000E+00
  0.00000000E+00  0.00000000E+00  0.00000000E+00
  0.00000000E+00  0.00000000E+00  0.00000000E+00
  0.00000000E+00  0.00000000E+00  0.00000000E+00
  0.00000000E+00  0.00000000E+00  0.00000000E+00
  0.00000000E+00  0.00000000E+00  0.00000000E+00
  0.00000000E+00  0.00000000E+00  0.00000000E+00
  0.00000000E+00  0.00000000E+00  0.00000000E+00
  0.00000000E+00  0.00000000E+00  0.00000000E+00
  0.00000000E+00  0.00000000E+00  0.00000000E+00
  0.00000000E+00  0.00000000E+00  0.00000000E+00
  0.00000000E+00  0.00000000E+00  0.00000000E+00
  0.00000000E+00  0.00000000E+00  0.00000000E+00
  0.00000000E+00  0.00000000E+00  0.00000000E+00
  0.00000000E+00  0.00000000E+00  0.00000000E+00
  0.00000000E+00  0.00000000E+00  0.00000000E+00
  0.00000000E+00  0.00000000E+00  0.00000000E+00
  0.00000000E+00  0.00000000E+00  0.00000000E+00
  0.00000000E+00  0.00000000E+00  0.00000000E+00
  0.00000000E+00  0.00000000E+00  0.00000000E+00
  0.00000000E+00  0.00000000E+00  0.00000000E+00
  0.00000000E+00  0.00000000E+00  0.00000000E+00
  0.00000000E+00  0.00000000E+00  0.00000000E+00
  0.00000000E+00  0.00000000E+00  0.00000000E+00
  0.00000000E+00  0.00000000E+00  0.00000000E+00
  0.00000000E+00  0.00000000E+00  0.00000000E+00
  0.00000000E+00  0.00000000E+00  0.00000000E+00
  0.00000000E+00  0.00000000E+00  0.00000000E+00
  0.00000000E+00  0.00000000E+00  0.00000000E+00
  0.00000000E+00  0.00000000E+00  0.00000000E+00
  0.00000000E+00  0.00000000E+00  0.00000000E+00
  0.00000000E+00  0.00000000E+00  0.00000000E+00
  0.00000000E+00  0.00000000E+00  0.00000000E+00
  0.00000000E+00  0.00000000E+00  0.00000000E+00
  0.00000000E+00  0.00000000E+00  0.00000000E+00
  0.00000000E+00  0.00000000E+00  0.00000000E+00
  0.00000000E+00  0.00000000E+00  0.00000000E+00
  0.00000000E+00  0.00000000E+00  0.00000000E+00
  0.00000000E+00  0.00000000E+00  0.00000000E+00
  0.00000000E+00  0.00000000E+00  0.00000000E+00
  0.00000000E+00  0.00000000E+00  0.00000000E+00
  0.00000000E+00  0.00000000E+00  0.00000000E+00
  0.00000000E+00  0.00000000E+00  0.00000000E+00
  0.00000000E+00  0.00000000E+00  0.00000000E+00
  0.00000000E+00  0.00000000E+00  0.00000000E+00
  0.00000000E+00  0.00000000E+00  0.00000000E+00
  0.00000000E+00  0.00000000E+00  0.00000000E+00
  0.00000000E+00  0.00000000E+00  0.00000000E+00
  0.00000000E+00  0.00000000E+00  0.00000000E+00
  0.00000000E+00  0.00000000E+00  0.00000000E+00
  0.00000000E+00  0.00000000E+00  0.00000000E+00
  0.00000000E+00  0.00000000E+00  0.00000000E+00
  0.00000000E+00  0.00000000E+00  0.00000000E+00
  0.00000000E+00  0.00000000E+00  0.00000000E+00
  0.00000000E+00  0.00000000E+00  0.00000000E+00
  0.00000000E+00  0.00000000E+00  0.00000000E+00
  0.00000000E+00  0.00000000E+00  0.00000000E+00
  0.00000000E+00  0.00000000E+00  0.00000000E+00
  0.00000000E+00  0.00000000E+00  0.00000000E+00
  0.00000000E+00  0.00000000E+00  0.00000000E+00
  0.00000000E+00  0.00000000E+00  0.00000000E+00
