CONTCAR-jianxi                          
   1.00000000000000     
    14.4746026128251408   -0.0030957227831611    0.0000088347402303
    -0.0030551291343910   14.6066467328938430   -0.0000522910293426
     0.0000057658895130   -0.0000350004245160    9.7872285547428870
   Sn   O    Ti
    54   108     1
Direct
  0.0207903997461507  0.0108035245726228  0.0064305884307781
  0.1749136579807682  0.1945223681432652  0.1657660444952561
  0.3310569570487668  0.0435423699284469  0.0060920812248644
  0.5054540532787710  0.1899203042749468  0.1690304101600337
  0.6483225655121213  0.9987807492450395  0.9976072367161170
  0.8113839079939281  0.1376681098288181  0.1672886925722018
  0.9700221358034418  0.3274922122955619  0.0014343269606772
  0.1284374011634762  0.4594739392487797  0.1669776099992576
  0.3411584871120682  0.3447240291297056  0.9981585739078918
  0.5179539134070710  0.4958256185828007  0.1659231097454143
  0.6867881286932138  0.3106210110117666  0.9963197743163236
  0.8131015122721663  0.4904973440086353  0.1650645958064689
  0.9911285838254867  0.6649270987628387  0.9788029893309516
  0.1396033753060525  0.7082696600372339  0.1612024807115986
  0.3254057185989410  0.6466362962473116  0.9994444109571531
  0.4994270516335461  0.8081412779022060  0.1783011348594749
  0.6744495719491924  0.6747189760633009  0.9978543901483303
  0.8378827189922455  0.8490131759496877  0.1607695076178763
  0.0215080657466614  0.0100157322904730  0.3283575039543041
  0.1699526649589577  0.1881631886167810  0.5081077115120747
  0.3377935041291875  0.0384698875990803  0.3429976075265034
  0.5021776812463526  0.1757587842354213  0.5066711669649012
  0.6530544642258508  0.9936575060290767  0.3361152568993963
  0.8336446140886644  0.1559230456737110  0.5020072018240862
  0.9797701504315091  0.3249760279795638  0.3410819358092965
  0.1689626295273429  0.4962693234107204  0.4970210016292020
  0.3398420621050411  0.3451782345031185  0.3412108211988292
  0.5088019722963413  0.5058301847767720  0.4949833026371940
  0.6856322574532093  0.3127685375826791  0.3378329137250084
  0.8266226265035800  0.5087618475975760  0.5051837002995820
  0.9894943837565949  0.6629623824406387  0.3440445313649549
  0.1810614417580636  0.8408975719886381  0.5004390848401232
  0.3237920195846438  0.6516133646044854  0.3280553818873376
  0.4970027188665664  0.8324689194845289  0.5090539498961663
  0.6844028787920976  0.6727369090459649  0.3328907518287632
  0.8377910317907973  0.8378517045154424  0.4963458299586266
  0.0090350994135917  0.0055035017783827  0.6657701426083548
  0.1637442979169294  0.1887047559899584  0.8337764356786734
  0.3506591928837525  0.0097890424988788  0.6675625451965929
  0.5019923448559733  0.1724750969292366  0.8298486328426903
  0.6595920540926092  0.0058735610513568  0.6608133363376623
  0.8344579951763922  0.1524249392515949  0.8272619961378643
  0.9860504881604105  0.3209629941073789  0.6689001689649893
  0.1697744565044723  0.4932606106698406  0.8344607617388847
  0.3463495363678298  0.3334333989507529  0.6685937328577106
  0.5056274208753272  0.5016541554425777  0.8291298440765156
  0.6683105795511284  0.3357334445978644  0.6631321865204034
  0.8247533005308658  0.5090075300648265  0.8293802945745821
  0.0011084736812839  0.6534747404918027  0.6636447821426613
  0.1684807230160952  0.8287428526171707  0.8146626176857067
  0.3211787106467728  0.6697916108980732  0.6624198842713486
  0.4959751767471549  0.8290934855364603  0.8439170544393557
  0.6557645024071208  0.6904715319467177  0.6656778065993797
  0.8343763300158824  0.8415820901314046  0.8267951430714617
  0.1239071167514149  0.1179608439222530  0.0058290765374704
  0.2255497505734458  0.2569732795656689  0.9945134153386167
  0.0680417097814441  0.2970078359266751  0.1700916488992180
  0.2787220148604979  0.0902461667682635  0.1861391540379844
  0.4491273050789865  0.1100589790266485  0.0050169222280743
  0.5673891545074050  0.2373852777156553  0.9918153776012536
  0.4023895205587593  0.2858239791710033  0.1628519047951155
  0.6007343371446455  0.0707192464600748  0.1658843398483311
  0.7632764911035486  0.0856351219062888  0.9872658384089905
  0.8866022557621790  0.2129639043947276  0.0097529013843589
  0.7371634286492937  0.2536778139200493  0.1652426996072204
  0.9387355246058237  0.0640702786903196  0.1643379203799786
  0.0874055357404937  0.4275644605303203  0.9800711565963259
  0.2126373529904126  0.5642913146957853  0.9998027914320667
  0.0644725265762077  0.5946912406722544  0.1636719739611528
  0.2690627351649091  0.4073086820963093  0.1694439425996907
  0.4420476346794999  0.4446288484137863  0.0036998303918916
  0.5780113732614937  0.5565075069457838  0.9968804832884136
  0.4048997868607366  0.6029938189490153  0.1714877092453213
  0.6205722998250937  0.3792956330435154  0.1665208670185041
  0.7691975682333849  0.4305858767264455  0.9898718959793775
  0.8985024379306019  0.5613535691389560  0.0018465192843183
  0.7435960715960137  0.6101220276704500  0.1607470952191153
  0.9177764348987423  0.3943981126819071  0.1769100442428841
  0.1058265687674031  0.7619858942135452  0.9739400225879589
  0.2546114750626994  0.8885076161010342  0.0236053607028821
  0.0834844459245676  0.9495729164487985  0.1697095149901189
  0.2655088190074833  0.7228421990876527  0.1574965800378482
  0.4088399150071728  0.7690986848206306  0.0124109850555828
  0.5589375041327252  0.8838687002909775  0.0044513759632518
  0.4018309842647547  0.9561780367634902  0.1753193965097659
  0.6066680532102077  0.7246067545330485  0.1690071738533867
  0.7841151644427204  0.7683118020927567  0.9946887325105900
  0.9062833522677664  0.9066095193405940  0.9892535847525434
  0.7218980527253670  0.9365888347288227  0.1634616723893938
  0.9572751474400215  0.7365159377776033  0.1655307418093069
  0.1184684822686530  0.1191900755777043  0.3360208682370214
  0.2311799844870365  0.2573665656872412  0.3461207872262024
  0.0537512186306328  0.2636648211481977  0.4969937574532169
  0.2692514548382116  0.0767408747163234  0.5114088534376519
  0.4309800395566488  0.1376570484550172  0.3398059238843958
  0.5689460128119186  0.2331544256437224  0.3436412488340552
  0.4025245629662577  0.2740610883685606  0.4978052894326909
  0.5886577089258705  0.0638106077857193  0.4982201710243313
  0.7553120165254146  0.0942586423588057  0.3442887942476764
  0.8976379117251572  0.2132268094153260  0.3346089215578175
  0.7234282934755627  0.2442417850330676  0.5060677745406231
  0.9339137371122513  0.0542125381865442  0.4933972176794725
  0.0830880819662818  0.4348894515061395  0.3521933765873950
  0.2144174215970685  0.5719056326096688  0.3289530891977262
  0.0629898474225107  0.5961815611926261  0.4962405286245312
  0.2889480667430935  0.4169355757217279  0.5117602290961327
  0.4457156216925809  0.4401407423981699  0.3235260159125595
  0.5823952772569346  0.5595126115034406  0.3302377118330501
  0.4017304296421257  0.6054614430726336  0.4993422573731415
  0.6032430844658260  0.3883507593188671  0.4900441832477276
  0.7643844228154222  0.4328453680458529  0.3412850981170595
  0.8936975649300177  0.5618931129901813  0.3276072819291412
  0.7382062138335862  0.6188328908254768  0.5088891348334396
  0.9213178334726378  0.3937237467664160  0.5124549203788897
  0.1080686898907439  0.7618356490178450  0.3506839397017399
  0.2626193946340992  0.9037648469631714  0.3468365750867574
  0.0831744974387870  0.9469584198973295  0.5021773607337680
  0.2739875501915658  0.7329540638724447  0.4860100490071480
  0.4123890826694253  0.7807172487559452  0.3398218562189679
  0.5587001345432462  0.8892640054707999  0.3355326014090475
  0.4091897309238819  0.9548294091098642  0.4967422701097691
  0.5929451077268801  0.7265805489904387  0.4822877874174665
  0.7880769346327352  0.7689142545423342  0.3255554009663291
  0.8989814956347003  0.9136423836848891  0.3364107261815114
  0.7180858592916817  0.9202868125716152  0.4998108879226766
  0.9299232526239114  0.7268891579261110  0.5052491768549149
  0.1075840710572016  0.1134808371341298  0.6696597785564107
  0.2325951825678033  0.2488859219975944  0.6750333657227424
  0.0465997707539401  0.2619048689926011  0.8438232398295227
  0.2714043467174096  0.0870006518816035  0.8325106366550205
  0.4339396881656312  0.1190234115064789  0.6680301873249809
  0.5746115806016148  0.2301863638893473  0.6703964335688971
  0.4098390050757560  0.2768856274869578  0.8402113809734096
  0.5912805933487291  0.0667396599722775  0.8286096540294842
  0.7663752608594573  0.0996951189462485  0.6682880615730148
  0.9026192265673512  0.2121785186904135  0.6630735768251804
  0.7364373793450264  0.2529584193508054  0.8257614330491623
  0.9421501195808775  0.0596253566459232  0.8387681579952960
  0.1099094488177777  0.4189649557133946  0.6668494992222914
  0.2163420903315224  0.5743168301836847  0.6666218168535901
  0.0634358213346974  0.5927736839510536  0.8307283306127126
  0.2820527028135482  0.4044366789824502  0.8290403832165651
  0.4516869166210561  0.4330107658553840  0.6638117047864979
  0.5643751841404304  0.5767164776730167  0.6625559427331988
  0.3966485389477915  0.6036041061139353  0.8324775577575555
  0.6070514311474761  0.3909021450806701  0.8406465182192210
  0.7591551263595211  0.4416327559581035  0.6636912338374681
  0.8952519568710677  0.5600719846804901  0.6712191731852516
  0.7355049416623397  0.6229269500370817  0.8224273311657558
  0.9168678581963858  0.3903696200692658  0.8258283383996159
  0.1172531319894937  0.7577019157970534  0.6463439742331741
  0.2407989493361547  0.9003620648462368  0.6709473868563565
  0.0841924585320112  0.9454757285462974  0.8288695401743649
  0.2791112179659490  0.7396747911476641  0.8365038553131320
  0.4276166828647199  0.7726241522016897  0.6723988797512331
  0.5599902058921817  0.8978288363756658  0.6722016821493432
  0.4050899284276872  0.9450967827837229  0.8249698367047706
  0.5915608166926030  0.7213549355414335  0.8518452487844792
  0.7707942509845597  0.7691784195111128  0.6630512222065464
  0.8980699470888428  0.9111589577378455  0.6626429206447033
  0.7198489859323548  0.9274665040835665  0.8267028834964782
  0.9397388037328421  0.7342680433667144  0.8161332465435772
  0.3100576332936744  0.8531346990728564  0.1766891742978104
 
 -0.17774562E-02  0.95693894E-03  0.98610678E-03
  0.19219255E-03  0.26983883E-02 -0.75047157E-03
 -0.30706284E-02 -0.16806414E-02  0.17688904E-02
 -0.18203685E-02  0.67499080E-03 -0.10181652E-02
 -0.10873584E-02 -0.35467122E-02 -0.13417024E-02
 -0.18326583E-02  0.17399912E-02  0.10271233E-03
 -0.25220356E-02  0.29401399E-02  0.28943373E-02
  0.17493099E-02  0.14308035E-02 -0.89114302E-03
  0.35535419E-02 -0.14471352E-02 -0.68133146E-04
 -0.11659904E-02 -0.10216670E-03 -0.43275493E-03
  0.53355267E-03 -0.23846498E-02  0.70801202E-03
  0.26118056E-02 -0.13899995E-03 -0.47067911E-03
  0.56351945E-02  0.42360904E-02  0.14107760E-02
  0.94354655E-02 -0.23903555E-03  0.57977968E-03
 -0.35792173E-02  0.18568477E-02 -0.52288823E-03
 -0.56158107E-02 -0.41049123E-02 -0.88539243E-04
  0.21703171E-02 -0.22213394E-02 -0.18887138E-03
 -0.47498402E-02  0.22934636E-02  0.36823270E-03
 -0.14730748E-02  0.25031493E-02 -0.36941815E-03
 -0.43095245E-02  0.52400517E-02  0.64787593E-03
 -0.41709591E-02  0.12096898E-02 -0.17064207E-02
  0.32243648E-02  0.16987500E-03  0.23608570E-02
  0.39639725E-03 -0.39976810E-02  0.19204666E-02
 -0.39430907E-02  0.17906196E-02  0.31274190E-03
 -0.36026583E-02  0.46426171E-02 -0.27319745E-02
  0.14236251E-02 -0.55757869E-02  0.49302965E-02
  0.56028083E-02 -0.34922098E-02  0.68549747E-03
  0.10769126E-02  0.13191000E-02 -0.11402003E-02
  0.11249640E-02 -0.13871952E-02 -0.15566421E-02
  0.62084302E-02  0.24327610E-02 -0.63042790E-03
  0.43790974E-02  0.51492022E-02 -0.21574342E-02
  0.16277221E-02  0.16052812E-02 -0.29269849E-02
 -0.26419393E-02 -0.88801350E-03  0.22913145E-02
 -0.57436016E-02 -0.23469135E-02  0.11663715E-02
  0.17666253E-02 -0.11723936E-02  0.77350513E-03
  0.12662293E-02 -0.27533169E-02 -0.22493405E-03
 -0.30573286E-02  0.19154496E-02 -0.90112293E-04
 -0.87440185E-03  0.61514133E-03  0.10577484E-03
 -0.62742933E-02 -0.40632560E-02 -0.13322845E-02
  0.37224161E-03 -0.19195574E-02 -0.61336522E-03
  0.18212694E-02 -0.21272237E-02 -0.14424388E-02
 -0.31047711E-02  0.50848693E-03 -0.56149258E-03
 -0.57005103E-02 -0.20093942E-02  0.55389502E-03
 -0.80868898E-03 -0.60247260E-02 -0.42294330E-02
  0.92484806E-03  0.14096867E-02 -0.47365440E-03
  0.10456435E-02  0.56101548E-03 -0.74646258E-03
  0.44641571E-02  0.12511677E-03 -0.45653786E-03
  0.65603163E-02  0.18284852E-02  0.11178534E-03
  0.92624120E-02  0.40079652E-02  0.22470504E-03
 -0.11912435E-03 -0.43134369E-03  0.35169590E-02
  0.39866049E-03 -0.12123921E-02 -0.14577175E-03
 -0.45497742E-02 -0.56223996E-02  0.14286690E-02
 -0.23385827E-02  0.35788113E-03 -0.80394323E-03
  0.41186121E-03 -0.11892097E-02 -0.10998825E-02
  0.55306130E-02  0.75810729E-02 -0.19231396E-02
  0.56627534E-02 -0.30623539E-02  0.27708843E-02
  0.23483599E-02  0.19389657E-02  0.56283416E-03
 -0.21238575E-01  0.42998317E-02 -0.71410554E-02
 -0.44488745E-02  0.59744547E-02 -0.94362296E-03
  0.76239719E-02 -0.26790413E-02 -0.22372611E-02
  0.39714856E-02 -0.10653488E-02 -0.18215169E-02
 -0.97671337E-03 -0.55837519E-02 -0.30234895E-02
 -0.91609533E-02  0.33335544E-02  0.28014850E-03
 -0.35040853E-02  0.13492043E-02  0.11302014E-02
  0.92296702E-02 -0.18098233E-02  0.24759501E-02
 -0.90386036E-02 -0.66672044E-02  0.16249710E-02
  0.13987469E-03  0.11031644E-02  0.28917842E-02
  0.99260984E-03 -0.76509383E-02  0.43527604E-02
  0.74471569E-02  0.40704278E-02  0.36617423E-02
  0.57908420E-02  0.83527824E-03  0.14392134E-02
 -0.32841673E-02 -0.14671890E-02 -0.74749613E-03
 -0.42560466E-02  0.30612613E-02 -0.14831686E-02
  0.35764092E-02 -0.54506156E-02  0.60378026E-03
  0.82459477E-02  0.63824908E-02 -0.17439321E-02
  0.65251523E-03  0.22196798E-02 -0.22328001E-02
  0.27190078E-02  0.70627804E-02  0.14944999E-03
  0.83303841E-03 -0.54485855E-02  0.19259170E-02
  0.78966306E-02  0.76088846E-02 -0.21334527E-02
  0.56918045E-02  0.63766348E-02  0.40632413E-02
 -0.62404234E-02 -0.10425567E-02  0.45395321E-02
 -0.41120765E-02  0.96502925E-02  0.81923833E-03
 -0.66155615E-02  0.84619596E-03  0.31924076E-02
  0.40587610E-02 -0.77656896E-02  0.43520259E-02
 -0.89148432E-03 -0.45887356E-02  0.10514109E-02
 -0.16994598E-01 -0.26991543E-02  0.19659383E-02
 -0.23548873E-02 -0.45421764E-02  0.28669059E-02
 -0.30489444E-02  0.16429243E-02  0.72924921E-03
 -0.29026788E-02  0.15710113E-02  0.20465014E-02
 -0.25152360E-02  0.68331021E-02 -0.14788094E-02
  0.41520276E-02  0.30059473E-02 -0.79327464E-03
  0.20990686E-02  0.14079700E-01  0.19221091E-02
  0.77035938E-02 -0.11237942E-01 -0.49359101E-03
 -0.28038470E-02  0.83454368E-02  0.18126368E-02
  0.19562719E-02  0.77188375E-02 -0.43070215E-02
  0.16136463E-02  0.10001299E-02  0.47641891E-03
  0.10859516E-01  0.61998600E-03  0.11617490E-02
  0.95144590E-02  0.31719531E-02  0.19695202E-02
  0.42572802E-02 -0.11978686E-03 -0.55589760E-03
 -0.43380593E-02 -0.49144131E-02  0.15785517E-03
 -0.48136752E-02  0.40217533E-02 -0.46040405E-02
 -0.32186527E-02  0.33460735E-02  0.13941268E-02
 -0.72842334E-03 -0.19755708E-02 -0.11602538E-02
  0.37853100E-02  0.48542824E-02 -0.30436096E-02
 -0.34836764E-02 -0.45344586E-02  0.20125083E-03
  0.89699661E-02  0.26186988E-02 -0.23833369E-02
  0.15865493E-02 -0.80878450E-04  0.62172620E-02
 -0.46747377E-03 -0.17997801E-02 -0.27567268E-02
 -0.29072067E-02  0.30302508E-02  0.41525050E-02
 -0.10606054E-02 -0.30291664E-03 -0.12347429E-03
 -0.21488990E-02 -0.74237311E-02 -0.23308981E-02
  0.19658165E-02 -0.19331816E-02  0.56050333E-02
  0.76644963E-02 -0.47275467E-03  0.30658498E-03
  0.17392331E-02 -0.52443246E-03 -0.10962908E-02
  0.21499493E-02  0.73460590E-03  0.13045835E-02
  0.70007122E-02  0.65652610E-02 -0.36406931E-02
 -0.16994157E-01  0.45956566E-02  0.15037776E-02
 -0.20197251E-02  0.78859553E-02  0.57016096E-03
  0.98859341E-03  0.92575529E-03  0.20505442E-02
 -0.64217169E-03 -0.65797573E-03 -0.68831818E-02
  0.52751569E-02 -0.54378332E-02  0.29504138E-02
 -0.28972610E-02  0.33419898E-02 -0.43797636E-03
 -0.46377692E-02  0.26492059E-03 -0.43645537E-02
  0.45901523E-03  0.21579042E-02 -0.11468216E-02
 -0.16573896E-02 -0.56125369E-03  0.60904780E-03
  0.36464354E-02  0.22546184E-02 -0.43454522E-03
  0.25978845E-02 -0.20132648E-02 -0.10574066E-02
  0.71455858E-02 -0.26723305E-02  0.42609140E-02
 -0.20680299E-02 -0.60956787E-03 -0.73548878E-03
 -0.18688420E-02  0.32913665E-02 -0.10698033E-02
  0.66753670E-02  0.43740589E-02 -0.15505848E-03
  0.10680491E-02  0.60937340E-02  0.72998842E-02
  0.14601987E-01 -0.12751453E-01 -0.29699489E-03
  0.32426794E-02 -0.15584341E-02 -0.43237853E-02
  0.58243015E-02 -0.38611133E-03  0.62275441E-02
 -0.63008426E-02  0.69550051E-03 -0.39070909E-03
 -0.90121255E-02 -0.27790787E-02 -0.18074497E-02
 -0.12350156E-02  0.73952891E-02 -0.43300109E-03
 -0.32802018E-02  0.72633917E-03  0.22127701E-02
  0.34149739E-02  0.56326008E-02 -0.38203491E-02
 -0.10719441E-02 -0.51280099E-02  0.65251521E-03
  0.60635817E-02  0.34747065E-02  0.44327047E-02
 -0.10202031E-03  0.95013686E-03 -0.59946186E-03
 -0.43511945E-02  0.40138682E-02  0.34118869E-03
 -0.91729730E-02  0.50785778E-02 -0.86456808E-03
  0.21812795E-02 -0.69091297E-04 -0.33877839E-02
 -0.65578593E-03 -0.31820758E-02  0.17990959E-02
  0.79894806E-02 -0.37495639E-02 -0.57746622E-04
  0.95781616E-03  0.22588252E-03  0.16591802E-02
  0.15741094E-02 -0.39135784E-02 -0.23933519E-02
 -0.39780179E-03  0.97617766E-03  0.60769603E-02
 -0.22530279E-02 -0.44911062E-02  0.31085446E-04
  0.56608559E-02 -0.36726327E-02 -0.65910868E-02
 -0.30119740E-03  0.50859415E-02  0.31338760E-02
 -0.57654187E-02 -0.39447378E-02 -0.29797694E-02
 -0.31796432E-02 -0.14299664E-01 -0.52229774E-02
 -0.40132332E-02 -0.20292563E-02  0.34988138E-03
  0.16492660E-02 -0.37592167E-02  0.54958443E-02
  0.45079011E-03 -0.79769561E-02  0.17555240E-02
 -0.39102636E-02  0.21542754E-04 -0.12997902E-02
 -0.33383504E-02  0.11124297E-02 -0.18646285E-02
 -0.13132311E-03  0.24430226E-02  0.10083096E-02
  0.13602757E-02  0.29202147E-03  0.14887609E-02
 -0.61145249E-02  0.19365023E-02 -0.50638230E-02
 
           1
   1.00000000000000     
  0.43403935E+00  0.17731741E-02 -0.13500744E-03  0.00000000E+00
  0.20667615E-01  0.10869013E-01  0.65313433E-02
  0.17492697E+00  0.19470711E+00  0.16568937E+00
  0.33084479E+00  0.43427265E-01  0.62728154E-02
  0.50532830E+00  0.18996649E+00  0.16892638E+00
  0.64824739E+00  0.99853792E+00  0.99747015E+00
  0.81125732E+00  0.13778721E+00  0.16729919E+00
  0.96984794E+00  0.32769346E+00  0.17300541E-02
  0.12855828E+00  0.45957192E+00  0.16688656E+00
  0.34140397E+00  0.34462501E+00  0.99815161E+00
  0.51787336E+00  0.49581861E+00  0.16587889E+00
  0.68682496E+00  0.31045776E+00  0.99639211E+00
  0.81328195E+00  0.49048787E+00  0.16501650E+00
  0.99151796E+00  0.66521719E+00  0.97894714E+00
  0.14025524E+00  0.70825343E+00  0.16126172E+00
  0.32515847E+00  0.64676337E+00  0.99939099E+00
  0.49903902E+00  0.80786017E+00  0.17829209E+00
  0.67459948E+00  0.67456693E+00  0.99783509E+00
  0.83755460E+00  0.84917012E+00  0.16080713E+00
  0.21406332E-01  0.10187081E-01  0.32831976E+00
  0.16965501E+00  0.18852187E+00  0.50817391E+00
  0.33750536E+00  0.38552644E-01  0.34282326E+00
  0.50240044E+00  0.17577046E+00  0.50691238E+00
  0.65308179E+00  0.99338382E+00  0.33631148E+00
  0.83337223E+00  0.15604558E+00  0.50203916E+00
  0.97952132E+00  0.32529382E+00  0.34080280E+00
  0.16906090E+00  0.49588762E+00  0.49752475E+00
  0.34022909E+00  0.34493923E+00  0.34128086E+00
  0.50887639E+00  0.50592051E+00  0.49486680E+00
  0.68570996E+00  0.31267358E+00  0.33767386E+00
  0.82705158E+00  0.50892849E+00  0.50511929E+00
  0.98979699E+00  0.66331497E+00  0.34382410E+00
  0.18117392E+00  0.84100750E+00  0.50014002E+00
  0.32360948E+00  0.65155253E+00  0.32828949E+00
  0.49660588E+00  0.83230816E+00  0.50917312E+00
  0.68452491E+00  0.67265667E+00  0.33296978E+00
  0.83787847E+00  0.83766323E+00  0.49632285E+00
  0.88239069E-02  0.56345925E-02  0.66576094E+00
  0.16368390E+00  0.18874686E+00  0.83378724E+00
  0.35022567E+00  0.95107717E-02  0.66742642E+00
  0.50201803E+00  0.17234369E+00  0.82978596E+00
  0.65971785E+00  0.57279534E-02  0.66066596E+00
  0.83424350E+00  0.15245971E+00  0.82720463E+00
  0.98565663E+00  0.32082534E+00  0.66895676E+00
  0.16971850E+00  0.49284813E+00  0.83402862E+00
  0.34641345E+00  0.33352992E+00  0.66854534E+00
  0.50569967E+00  0.50169258E+00  0.82905358E+00
  0.66861899E+00  0.33574208E+00  0.66308554E+00
  0.82520656E+00  0.50913281E+00  0.82939172E+00
  0.17484395E-02  0.65374927E+00  0.66366774E+00
  0.16847249E+00  0.82871332E+00  0.81502196E+00
  0.32120624E+00  0.66970861E+00  0.66240499E+00
  0.49566077E+00  0.82870850E+00  0.84406303E+00
  0.65560294E+00  0.69049600E+00  0.66559566E+00
  0.83440477E+00  0.84150068E+00  0.82668276E+00
  0.12428932E+00  0.11847994E+00  0.56325842E-02
  0.22594093E+00  0.25676371E+00  0.99479653E+00
  0.68203978E-01  0.29714062E+00  0.17014916E+00
  0.27725478E+00  0.90540229E-01  0.18540953E+00
  0.44882003E+00  0.11046794E+00  0.49205110E-02
  0.56791583E+00  0.23720198E+00  0.99158679E+00
  0.40266388E+00  0.28575110E+00  0.16266579E+00
  0.60066678E+00  0.70336957E-01  0.16557542E+00
  0.76264364E+00  0.85863210E-01  0.98729446E+00
  0.88636019E+00  0.21305622E+00  0.98683793E-02
  0.73780105E+00  0.25355405E+00  0.16549568E+00
  0.93811098E+00  0.63613697E-01  0.16450395E+00
  0.87415215E-01  0.42763999E+00  0.98036662E+00
  0.21270582E+00  0.56376753E+00  0.24752739E-03
  0.64987083E-01  0.59497002E+00  0.16404611E+00
  0.26946282E+00  0.40736595E+00  0.16959099E+00
  0.44182072E+00  0.44452835E+00  0.36234554E-02
  0.57771738E+00  0.55671702E+00  0.99672894E+00
  0.40514679E+00  0.60262071E+00  0.17154940E+00
  0.62114208E+00  0.37973271E+00  0.16634268E+00
  0.76924268E+00  0.43073785E+00  0.98964376E+00
  0.89869039E+00  0.56183714E+00  0.18617916E-02
  0.74365354E+00  0.60974902E+00  0.16094387E+00
  0.91832210E+00  0.39491915E+00  0.17669206E+00
  0.10621989E+00  0.76242254E+00  0.97435518E+00
  0.25418033E+00  0.88843615E+00  0.24069183E-01
  0.83200496E-01  0.95023353E+00  0.16979322E+00
  0.26505178E+00  0.72290004E+00  0.15782276E+00
  0.40912021E+00  0.76856709E+00  0.12855646E-01
  0.55887585E+00  0.88355453E+00  0.45588012E-02
  0.40065685E+00  0.95599300E+00  0.17552026E+00
  0.60650530E+00  0.72429575E+00  0.16930010E+00
  0.78390455E+00  0.76842424E+00  0.99476324E+00
  0.90608284E+00  0.90671703E+00  0.98946268E+00
  0.72172438E+00  0.93705661E+00  0.16331058E+00
  0.95756204E+00  0.73672179E+00  0.16544969E+00
  0.11861370E+00  0.12015403E+00  0.33621726E+00
  0.23171204E+00  0.25659731E+00  0.34607035E+00
  0.53557631E-01  0.26423613E+00  0.49717896E+00
  0.26938672E+00  0.77269349E-01  0.51096879E+00
  0.43109154E+00  0.13772554E+00  0.33985460E+00
  0.56969627E+00  0.23319703E+00  0.34375995E+00
  0.40318193E+00  0.27427839E+00  0.49800652E+00
  0.58895183E+00  0.63802469E-01  0.49816337E+00
  0.75501224E+00  0.93922128E-01  0.34430492E+00
  0.89730541E+00  0.21350208E+00  0.33413851E+00
  0.72320598E+00  0.24447082E+00  0.50621022E+00
  0.93386338E+00  0.54077276E-01  0.49327867E+00
  0.83349666E-01  0.43522184E+00  0.35188240E+00
  0.21417668E+00  0.57159514E+00  0.32897365E+00
  0.63609589E-01  0.59636097E+00  0.49599701E+00
  0.28905767E+00  0.41693006E+00  0.51239547E+00
  0.44568330E+00  0.44001752E+00  0.32324435E+00
  0.58219447E+00  0.55972003E+00  0.33066199E+00
  0.40165715E+00  0.60544069E+00  0.49932964E+00
  0.60309452E+00  0.38784248E+00  0.48980602E+00
  0.76452021E+00  0.43271305E+00  0.34185779E+00
  0.89422707E+00  0.56186086E+00  0.32763861E+00
  0.73832636E+00  0.61879701E+00  0.50877712E+00
  0.92146638E+00  0.39377407E+00  0.51258821E+00
  0.10855244E+00  0.76228522E+00  0.35031196E+00
  0.26144539E+00  0.90407923E+00  0.34699022E+00
  0.83035076E-01  0.94749828E+00  0.50223562E+00
  0.27405586E+00  0.73301746E+00  0.48621956E+00
  0.41234471E+00  0.78067219E+00  0.33911857E+00
  0.55906450E+00  0.88889180E+00  0.33583405E+00
  0.40898962E+00  0.95505817E+00  0.49669752E+00
  0.59262470E+00  0.72659862E+00  0.48184184E+00
  0.78810868E+00  0.76906200E+00  0.32543823E+00
  0.89886698E+00  0.91360394E+00  0.33647295E+00
  0.71833781E+00  0.92044122E+00  0.49976649E+00
  0.93010270E+00  0.72675136E+00  0.50514114E+00
  0.10807770E+00  0.11329799E+00  0.67009513E+00
  0.23245230E+00  0.24884416E+00  0.67495822E+00
  0.46470707E-01  0.26213017E+00  0.84371394E+00
  0.27186559E+00  0.87300206E-01  0.83249479E+00
  0.43401356E+00  0.11944062E+00  0.66877605E+00
  0.57562020E+00  0.22931359E+00  0.67036608E+00
  0.41006301E+00  0.27677898E+00  0.83976960E+00
  0.59168297E+00  0.66713313E-01  0.82924595E+00
  0.76593997E+00  0.99742642E-01  0.66824814E+00
  0.90199657E+00  0.21198813E+00  0.66288890E+00
  0.73635216E+00  0.25346470E+00  0.82571719E+00
  0.94192351E+00  0.59675036E-01  0.83899425E+00
  0.11014546E+00  0.41935062E+00  0.66645916E+00
  0.21626796E+00  0.57396574E+00  0.66668849E+00
  0.63854783E-01  0.59301166E+00  0.83118124E+00
  0.28204567E+00  0.40450173E+00  0.82897913E+00
  0.45138637E+00  0.43328550E+00  0.66384657E+00
  0.56374153E+00  0.57706403E+00  0.66246761E+00
  0.39679924E+00  0.60359941E+00  0.83213141E+00
  0.60700608E+00  0.39068428E+00  0.84083034E+00
  0.75970704E+00  0.44137617E+00  0.66368533E+00
  0.89531813E+00  0.56008746E+00  0.67138870E+00
  0.73561363E+00  0.62265904E+00  0.82218279E+00
  0.91684039E+00  0.39043645E+00  0.82644925E+00
  0.11709741E+00  0.75739441E+00  0.64634715E+00
  0.24118999E+00  0.90011071E+00  0.67027395E+00
  0.84171723E-01  0.94582392E+00  0.82918974E+00
  0.27871285E+00  0.73940464E+00  0.83619940E+00
  0.42739681E+00  0.77164512E+00  0.67186522E+00
  0.55971292E+00  0.89768985E+00  0.67223743E+00
  0.40520382E+00  0.94483944E+00  0.82553137E+00
  0.59159184E+00  0.72080882E+00  0.85202461E+00
  0.77052410E+00  0.76917984E+00  0.66291842E+00
  0.89783933E+00  0.91123507E+00  0.66245240E+00
  0.71983995E+00  0.92763376E+00  0.82680591E+00
  0.93983278E+00  0.73428806E+00  0.81628536E+00
  0.30963523E+00  0.85326719E+00  0.17617178E+00
 -0.12183223E-03  0.68390793E-04  0.10234118E-03
  0.15717526E-04  0.18638595E-03 -0.83645638E-04
 -0.21283808E-03 -0.10686818E-03  0.18412552E-03
 -0.12776973E-03  0.49288250E-04 -0.10315574E-03
 -0.77153631E-04 -0.24110303E-03 -0.13534655E-03
 -0.13477804E-03  0.12070212E-03  0.12071433E-04
 -0.17710865E-03  0.20080364E-03  0.29888730E-03
  0.11427887E-03  0.96880347E-04 -0.88836747E-04
  0.24678104E-03 -0.10136307E-03 -0.91294613E-05
 -0.83242260E-04 -0.53192656E-05 -0.42475483E-04
  0.43021068E-04 -0.17171066E-03  0.76286153E-04
  0.17641628E-03 -0.12288820E-04 -0.49559108E-04
  0.39349252E-03  0.29044620E-03  0.14391549E-03
  0.65979698E-03 -0.20573040E-04  0.56923865E-04
 -0.25321358E-03  0.12772255E-03 -0.46361516E-04
 -0.38966025E-03 -0.28723603E-03 -0.59442927E-05
  0.14847106E-03 -0.14790279E-03 -0.20378631E-04
 -0.33194862E-03  0.15642328E-03  0.37767187E-04
 -0.98805494E-04  0.17240479E-03 -0.39651367E-04
 -0.29859222E-03  0.36482725E-03  0.67294261E-04
 -0.29111489E-03  0.93011999E-04 -0.18258625E-03
  0.21967887E-03  0.10509581E-04  0.24199487E-03
  0.26238424E-04 -0.27386971E-03  0.19829585E-03
 -0.27417094E-03  0.12507969E-03  0.35054123E-04
 -0.25034908E-03  0.31608578E-03 -0.28225236E-03
  0.10036404E-03 -0.38221139E-03  0.49908749E-03
  0.38696202E-03 -0.24208168E-03  0.75013106E-04
  0.73691030E-04  0.92338536E-04 -0.11765784E-03
  0.84160578E-04 -0.10225464E-03 -0.15928467E-03
  0.42891385E-03  0.16962571E-03 -0.59586320E-04
  0.30487056E-03  0.35231811E-03 -0.22146199E-03
  0.11382378E-03  0.10998971E-03 -0.29393397E-03
 -0.19039387E-03 -0.60463161E-04  0.22487202E-03
 -0.39430020E-03 -0.16437965E-03  0.12095056E-03
  0.12465123E-03 -0.77412403E-04  0.78567401E-04
  0.86874370E-04 -0.19135923E-03 -0.24492965E-04
 -0.21199109E-03  0.13105694E-03 -0.89014577E-05
 -0.61612748E-04  0.46608588E-04  0.11794419E-04
 -0.42782753E-03 -0.27616645E-03 -0.13662510E-03
  0.23552563E-04 -0.13355338E-03 -0.66790204E-04
  0.12550784E-03 -0.14105841E-03 -0.15074745E-03
 -0.21665231E-03  0.35126940E-04 -0.64637732E-04
 -0.39912336E-03 -0.14393287E-03  0.56023215E-04
 -0.53054473E-04 -0.41205560E-03 -0.42637925E-03
  0.64048694E-04  0.92870949E-04 -0.49168240E-04
  0.69975087E-04  0.38956177E-04 -0.77739815E-04
  0.31154172E-03  0.89449272E-05 -0.49559964E-04
  0.45458354E-03  0.12737751E-03  0.71569669E-05
  0.63861673E-03  0.27073033E-03  0.24040454E-04
 -0.82929604E-05 -0.30372393E-04  0.35562948E-03
  0.23541292E-04 -0.82452182E-04 -0.16012248E-04
 -0.30898249E-03 -0.38826856E-03  0.15137624E-03
 -0.16386545E-03  0.30240314E-04 -0.82157457E-04
  0.27312026E-04 -0.82378532E-04 -0.11237802E-03
  0.40688364E-03  0.54312385E-03 -0.20743122E-03
  0.36886044E-03 -0.21489439E-03  0.27482972E-03
  0.16768940E-03  0.14638990E-03  0.61851036E-04
 -0.14366366E-02  0.25918929E-03 -0.65923653E-03
 -0.30151238E-03  0.39527932E-03 -0.10446853E-03
  0.52250930E-03 -0.17407218E-03 -0.25234648E-03
  0.27519431E-03 -0.59475308E-04 -0.20367728E-03
 -0.61602904E-04 -0.38787496E-03 -0.32357967E-03
 -0.62563530E-03  0.22720723E-03  0.20254890E-04
 -0.24810081E-03  0.78097828E-04  0.12628588E-03
  0.62786770E-03 -0.11310173E-03  0.23301981E-03
 -0.62137663E-03 -0.46486309E-03  0.15797402E-03
  0.19811462E-04  0.80775009E-04  0.28853270E-03
  0.55968761E-04 -0.53916944E-03  0.41594349E-03
  0.52796006E-03  0.29260463E-03  0.37604708E-03
  0.41727989E-03  0.56454124E-04  0.14602481E-03
 -0.21929837E-03 -0.96794054E-04 -0.64253292E-04
 -0.30383054E-03  0.18830352E-03 -0.15724654E-03
  0.25576991E-03 -0.37822810E-03  0.75737331E-04
  0.58031645E-03  0.42290676E-03 -0.17642850E-03