CONTCAR-pbo-1\(2)                       
   1.00000000000000     
    14.5545133646957918    0.0759519242655199    0.0045671478875033
     0.0762620929003032   14.6958151557679226    0.0093605629355592
     0.0030512369469085    0.0062661036908851    9.7614513180407680
   Sn   O    Pb
    54   109     1
Direct
  0.9869503264728359  0.0045973696109981  0.0002363843865285
  0.1566725645785350  0.1617147919789544  0.1555060114902650
  0.3186240085044350  0.0011391343439175  0.0095864385340150
  0.4903880349816970  0.1699780868757433  0.1780581236674952
  0.6482996982727529  0.9906888409262807  0.0186340968644394
  0.8411982413250031  0.1714473771174109  0.1545509706196914
  0.9862798168749812  0.3395467875994961  0.0036343899641228
  0.1535235024803373  0.4978568924354330  0.1792716045747244
  0.3195131214182704  0.3280825288576501  0.0040162585951526
  0.4891645758230552  0.4865539372589313  0.1537836318675600
  0.6560358002873244  0.3203363102168778  0.0256637916732636
  0.8164584680093485  0.4784758724858538  0.1661490250094370
  0.9884169719713177  0.6643395404777902  0.9944963221195544
  0.1500912573979364  0.8348027983749701  0.1520476384094157
  0.3242658638439370  0.6708961885583544  0.9954314435534928
  0.5001427056568424  0.8484115744178009  0.1946620485132431
  0.6679247870757220  0.6650122591222621  0.0109026145930952
  0.8331954107541263  0.8456581732927797  0.1721771765628375
  0.0043737514505786  0.9965769322247433  0.3337152377785735
  0.1734111757252067  0.1696080334281922  0.5104295149695119
  0.3237428461512327  0.0061059205641205  0.3450960613383898
  0.4914971067811080  0.1675146200002300  0.5142950460549585
  0.6633167935339099  0.0085936426091022  0.3587127438165428
  0.8286200894548599  0.1624871128576665  0.5047155171727384
  0.0004659219764422  0.3243245842319572  0.3432766713670252
  0.1589864316687975  0.5045524021504675  0.5206300357062135
  0.3196433929758525  0.3410485008143948  0.3492027123429775
  0.4959273097047734  0.4972375145468867  0.5044704376896725
  0.6552057503651617  0.3250579549227900  0.3477429927191176
  0.8334548040728651  0.4747452709093025  0.5031656634227618
  0.0317557460279548  0.6928380053653689  0.3367087094153841
  0.1754572541040211  0.8322961683947774  0.4979696563717127
  0.3130828549909658  0.6732741867234339  0.3277152997251457
  0.4844092125763090  0.8353234190349381  0.5166868422185844
  0.8322376992827656  0.6576227755870611  0.3520979536510336
  0.8278321920870078  0.8456875061741721  0.4926820378695396
  0.0010767862241440  0.9891918938485232  0.6760145897100881
  0.1518695687477166  0.1687524314802485  0.8322772442132239
  0.3168850589058272  0.9989441644294708  0.6951159469319883
  0.4821477536955233  0.1653117247932444  0.8359583150355170
  0.6547816777302199  0.0083665928830017  0.6821194333721604
  0.8254118809971271  0.1679494869241426  0.8245133958373337
  0.0091775087790856  0.3368012311690086  0.6776558662282762
  0.1554008460877961  0.5028313397055545  0.8310358825837811
  0.3270920880310567  0.3336925370393362  0.6817975941344979
  0.4930803388587948  0.5003368031076620  0.8497064752529903
  0.6607602852545649  0.3191474548943736  0.6863384400736920
  0.8236439580617062  0.4900376432962511  0.8246658216828682
  0.9919079436367660  0.6633610328480420  0.6718713467784490
  0.1603512731081906  0.8307814041729464  0.8185046957421896
  0.3382220159233910  0.6722919203033028  0.6671976814271904
  0.4979133163176512  0.8329740227079878  0.8557378617457709
  0.6644945266113451  0.6619308095572520  0.6788226516696779
  0.8224548743915708  0.8247390651477517  0.8370880094740742
  0.0795372534434991  0.1123617581222483  0.9998694386051783
  0.2191268458286036  0.2256361557082216  0.9968073813576944
  0.0634382578068126  0.2890491243648580  0.1706737282937137
  0.2481521104936719  0.0581406568380337  0.1808047389646920
  0.4137230566072369  0.1091658285343393  0.0027555762329101
  0.5581275789777155  0.2223568570228683  0.0121608302431389
  0.3775008266073820  0.2803830661168166  0.1719248950128907
  0.5862458542863386  0.0557577140985923  0.1662917469809715
  0.7568040101639463  0.1045824473625097  0.0105788513560380
  0.8934784623268203  0.2366794385036187  0.9978008778774902
  0.7191340496892631  0.2530789080603811  0.1691569789403404
  0.9385793226129262  0.0636337893371005  0.1787187596634662
  0.0873096842143329  0.4522868265007616  0.9953185607865532
  0.2228493904493923  0.5598140386464060  0.9959089968648787
  0.0875487909769940  0.6330540926132425  0.1453974939875954
  0.2580715044276418  0.4045925200492689  0.1744413184015958
  0.4292585859357014  0.4170057210670334  0.9922305082455470
  0.5606594287750536  0.5605478492382496  0.0223723953020981
  0.3902551484621117  0.6008067506525196  0.1595751272098944
  0.5887309412961250  0.3840892121612020  0.1773667742419409
  0.7598007127090040  0.4320965407032164  0.9909806207017824
  0.8702004754035871  0.5733413992801671  0.0005577709780178
  0.7297417090515079  0.6084516242706188  0.1946426043598577
  0.9214364028469009  0.3867143599663855  0.1728883269631277
  0.1000274023180314  0.7660903059175576  0.9814901405495121
  0.2260642101188221  0.8977692671996890  0.9871701632223476
  0.0643679819361355  0.9478741332275999  0.1515336093295935
  0.1662914493492480  0.7079993811196201  0.3905933427853418
  0.5981210734787588  0.7268586497234168  0.8390817618841567
  0.5685621093819573  0.8849470662787721  0.0082385782139014
  0.3936281979298366  0.9403247059625995  0.1816908055456340
  0.6088497269269919  0.7442242050718217  0.1632817795065231
  0.9111309391106086  0.7202676772904286  0.1914140667994844
  0.9054816297264890  0.8919449144979560  0.0190644401494709
  0.7209792789597305  0.9339310004373164  0.1912743510086363
  0.0432857269942079  0.8147309321078147  0.2755678918120426
  0.0946718100580308  0.1099137193170640  0.3474066422070290
  0.2289410125828959  0.2400565426633019  0.3532692527475770
  0.0674400495113320  0.2611851256962366  0.5190791953939063
  0.2681375306943402  0.0705608453513543  0.5087609257776681
  0.4169146372689728  0.1068165673555052  0.3360876618497296
  0.5557765714904493  0.2336413401200724  0.3376683113485181
  0.4077999829847400  0.2832090773887042  0.5205149122978652
  0.6117611999553915  0.0812191168110879  0.5128580100581128
  0.7670821479595527  0.1013787474105370  0.3273604249633000
  0.8915393135647489  0.2262252825490458  0.3396330131954433
  0.7273407944309177  0.2657607042485368  0.5249157408285094
  0.9339846069356921  0.0555382162962869  0.5117207704889238
  0.0950281835246130  0.4286892897390854  0.3638137301135720
  0.2378081925626319  0.5473583794114844  0.3437288863606578
  0.0392653594635773  0.6009909971627796  0.4917128775457668
  0.2629697884991956  0.3841236832196884  0.5238000257508623
  0.4399633586072567  0.4256069565476567  0.3384661136661349
  0.5220137320837428  0.5672393613644829  0.3396532715419407
  0.3879417056810779  0.6060573314672071  0.5105741145936823
  0.6045172480897574  0.3990819498946125  0.5081357036811830
  0.7640592636009351  0.4215040606796556  0.3383446829346081
  0.8961271150419330  0.5397790043872221  0.3190871713058457
  0.7247306422160480  0.6107766036571910  0.4988331681296025
  0.9282040353846028  0.3828910863151180  0.5118941645819052
  0.2973747470652121  0.7501535267534153  0.5091903822977047
  0.2209972604298536  0.9088272661072400  0.3338496450274998
  0.0554676578231752  0.9101994921556643  0.5072132582409689
  0.2619776094643604  0.7547387540774232  0.1668421035722141
  0.4350843674038910  0.7695534545890816  0.3469406543717493
  0.5428536553474882  0.9213808930564107  0.3577505945863700
  0.3791060811444205  0.9338969497010468  0.5240936259301812
  0.5823795655053621  0.7396244169798457  0.5461288020025282
  0.7511951484189070  0.7684421368614013  0.3294579609287743
  0.8924013301190133  0.9092686422431565  0.3362330153349422
  0.7251423636090391  0.9477518355340682  0.5154360547958701
  0.9207135179754878  0.7282138390522833  0.4897933581303139
  0.1128504601752880  0.0897055399624262  0.6431448597605113
  0.2373588595521253  0.2259005499347952  0.6730541556537941
  0.0697598800039012  0.2758889617798132  0.8316467786008743
  0.2608009278027201  0.0755533802128032  0.8478197075479386
  0.4217461010196518  0.0970219017631342  0.6714541979594135
  0.5569813362491979  0.2264852764489335  0.6947143737464477
  0.3976008732615217  0.2679204072088403  0.8459607400087293
  0.5915949872634233  0.0728429784268779  0.8554420745196956
  0.7432702790160510  0.1180466061342524  0.6658830610986485
  0.8965200707453252  0.2335442142650901  0.6739890249274072
  0.7343841482528963  0.2683538779190176  0.8494949360761831
  0.9256047921712069  0.0754104902465880  0.8246719094417840
  0.0854761164489857  0.4449650860259579  0.6849018355877343
  0.2238812543502117  0.5650181882941897  0.6800940513354407
  0.0567967882521965  0.6027314378390551  0.8282485560892074
  0.2559581800578741  0.3813780901140179  0.8395745889837353
  0.4347637209898529  0.4498104814576246  0.6653048916417837
  0.5471930588011565  0.5751202660210049  0.6657156051028711
  0.3904830156633859  0.6011709080375400  0.8455871204318641
  0.5830507070036238  0.4005668589013824  0.8334411278265657
  0.7534596680790306  0.4231430207699582  0.6685998114561769
  0.9055121153460703  0.5539695835859303  0.6384483372612765
  0.7293393935485368  0.6005302924099160  0.8571881594470212
  0.9230665603583126  0.3826217221167648  0.8241562286915518
  0.0902767411827265  0.7671119018866250  0.6720767571346886
  0.2146507300951976  0.9056559680230467  0.6783936240145531
  0.0617608855400330  0.9399692562862849  0.8502715616995297
  0.2634506021706682  0.7227783461464976  0.8346173193177113
  0.4337737440509154  0.7713216852320030  0.6975699601531584
  0.5464090386697099  0.9138127224743751  0.6737479553944302
  0.3956003250781349  0.9403393323403688  0.8554732603449757
  0.7595729500693728  0.7875690071010035  0.0206428748751327
  0.7523126201740583  0.7587799163513107  0.6758131155917413
  0.8800178125516182  0.8957366749566014  0.6715748050098888
  0.7253642142712826  0.9396267388978093  0.8334144888285869
  0.9238501528840630  0.7237791740420070  0.8241510435493843
  0.4443133935599243  0.7571993082664857  0.0211698234634859
  0.6105651298389105  0.6745712764241204  0.3506293048324046
 
  0.12183711E-02 -0.24422262E-02 -0.12934286E-02
  0.10841547E-02  0.33948455E-02 -0.14577811E-02
 -0.32556248E-02 -0.18465490E-03 -0.26450351E-02
  0.91484239E-03  0.90763323E-03 -0.10130097E-02
 -0.22232773E-02 -0.74620294E-02  0.33634825E-02
  0.19128474E-03 -0.27982404E-02 -0.60702118E-03
 -0.18713755E-02  0.21803045E-02 -0.49576696E-02
 -0.24283417E-02  0.13939230E-03  0.14451400E-02
  0.43518643E-02 -0.29762584E-02 -0.20402560E-02
 -0.27949238E-02 -0.42591747E-02  0.85738733E-03
 -0.39950749E-02 -0.41491276E-03 -0.37937933E-03
 -0.30469193E-02  0.12747331E-02 -0.55264716E-03
 -0.23359197E-03 -0.21440780E-02  0.12094133E-02
  0.27229505E-03 -0.28615955E-02 -0.30459351E-02
 -0.33187647E-03 -0.10659166E-02  0.88722588E-03
 -0.75893621E-03 -0.10693879E-02 -0.33776465E-03
  0.29966710E-02  0.22301460E-02  0.18484211E-02
  0.41916299E-02 -0.75117203E-02 -0.48389380E-02
 -0.18363158E-03  0.27294383E-03  0.37576247E-02
  0.13791522E-03  0.32532144E-02 -0.63974298E-03
 -0.38192039E-03  0.71399916E-03  0.12146152E-02
  0.47881338E-02  0.54895388E-02  0.38634353E-02
  0.14078154E-02 -0.10090500E-02 -0.23151029E-02
  0.25971803E-02 -0.66713175E-03 -0.18105364E-02
  0.19502239E-02  0.20420285E-02 -0.79261653E-03
  0.36137119E-02  0.15084093E-02  0.32903020E-02
 -0.28312516E-03 -0.63510790E-03  0.28046570E-02
  0.26116060E-02 -0.50597614E-03 -0.17300451E-02
 -0.28473845E-02 -0.31455204E-03 -0.10651311E-02
  0.19217714E-03 -0.24954526E-02 -0.18608625E-02
 -0.66775386E-03 -0.10803200E-02 -0.18424326E-02
 -0.66217936E-03 -0.26295029E-03 -0.58784364E-03
 -0.98702775E-03 -0.52889934E-03 -0.38374993E-02
  0.21616276E-02  0.39424038E-03  0.15584492E-02
 -0.17989399E-02 -0.10922346E-02 -0.70102537E-03
  0.81337241E-03 -0.33932793E-03  0.16464111E-02
 -0.57174904E-02  0.13029583E-02  0.13439671E-02
  0.44541572E-02 -0.32860346E-03  0.72570658E-03
 -0.40005541E-03 -0.18279872E-02  0.37698178E-02
 -0.16166883E-02  0.90956345E-03 -0.26023784E-02
  0.10945238E-02  0.48390644E-04  0.44943105E-02
  0.49517123E-02  0.49520700E-02 -0.13268954E-02
  0.13368571E-02  0.11968300E-02 -0.22919341E-02
  0.36958860E-03  0.22652443E-03 -0.13651887E-02
 -0.84528397E-03  0.17677896E-02  0.32681509E-02
  0.19883531E-02  0.68438746E-02  0.26154273E-02
  0.29140842E-02  0.28606004E-02 -0.63815598E-02
 -0.82291398E-03 -0.69981052E-03  0.64290528E-03
  0.11984649E-04  0.23909968E-02 -0.17695337E-02
  0.13301774E-02 -0.10177784E-02  0.19046786E-02
  0.14374463E-02  0.15423152E-02  0.36744740E-04
  0.61212400E-03  0.33611953E-02 -0.24492518E-02
 -0.10806918E-02 -0.35157967E-02 -0.39778146E-04
 -0.67771001E-03 -0.63562410E-02  0.25136558E-02
  0.36666243E-02  0.38654507E-02  0.13038144E-01
  0.39151921E-02 -0.35970842E-02  0.25822076E-02
  0.58953780E-02 -0.60092753E-02 -0.45241371E-02
  0.36865420E-02 -0.32353903E-02 -0.35784054E-02
 -0.59994290E-02  0.88168389E-02 -0.97028772E-03
 -0.65717226E-02  0.91687695E-03 -0.10647640E-01
  0.83289522E-03 -0.15787004E-02 -0.14153104E-02
 -0.68193683E-02  0.20936213E-02  0.57650511E-02
 -0.51273497E-02  0.59661314E-02 -0.88454197E-02
 -0.38606563E-02  0.29448127E-02  0.86814713E-03
  0.25670826E-02  0.12498962E-01 -0.80244788E-02
 -0.17084998E-02  0.12155782E-01  0.11098669E-01
  0.65699966E-02 -0.16943897E-04 -0.30050678E-02
  0.70085596E-02  0.55293001E-02 -0.90862423E-02
  0.18797114E-01 -0.93777869E-03 -0.44507622E-02
 -0.12041367E-01  0.14415355E-02  0.36324986E-03
  0.10555916E-01  0.40251812E-02 -0.24771181E-02
  0.12004319E-02  0.19574644E-02 -0.11012431E-01
  0.97095674E-03 -0.57882753E-02 -0.12496967E-02
 -0.70614198E-02 -0.41506692E-02  0.82208977E-02
 -0.49671542E-02 -0.12851048E-01 -0.60694697E-02
  0.57849845E-02  0.14024561E-04  0.54973392E-02
 -0.17067400E-02 -0.58865776E-02 -0.14472221E-01
 -0.30228054E-02  0.29375327E-02  0.22253700E-02
 -0.82965386E-02  0.15952056E-01 -0.57503234E-02
  0.56785435E-02  0.17765435E-02 -0.26133451E-02
  0.16347366E-01  0.11450375E-01  0.43574424E-02
 -0.63977059E-02  0.40073328E-02  0.39731278E-02
  0.45955489E-02 -0.73763152E-04  0.68519990E-02
 -0.17202342E-03 -0.23100548E-02 -0.46535971E-05
  0.33371173E-02 -0.78478627E-03  0.43706264E-02
 -0.22707097E-02 -0.31453914E-02  0.22199715E-02
  0.27291054E-02  0.61338529E-02  0.52604564E-02
 -0.46615809E-02 -0.47938240E-03  0.15573234E-02
 -0.65535313E-02  0.11688624E-01 -0.14395124E-01
 -0.13864328E-01  0.27696556E-02  0.38291468E-02
  0.55158713E-02  0.85968268E-02  0.85476321E-02
 -0.60489163E-02 -0.39664023E-02  0.51057618E-02
 -0.65187469E-02  0.13970381E-01 -0.35638496E-02
  0.52306937E-04  0.29171820E-02  0.94777976E-02
  0.40496482E-02  0.37405717E-02 -0.23294094E-02
 -0.35186698E-02  0.51755402E-02  0.37585567E-02
  0.63994893E-02  0.99053515E-02  0.10055317E-02
 -0.78810401E-02 -0.20573862E-02  0.78991169E-02
  0.10928720E-01 -0.29734612E-02  0.92711762E-02
 -0.24160540E-02  0.10768204E-01  0.50060755E-02
 -0.33385051E-02 -0.33033805E-02  0.55266440E-02
  0.29984331E-02 -0.11639575E-01 -0.17800943E-03
 -0.10185111E-01  0.32413825E-03  0.34803767E-02
 -0.41991723E-02  0.36267863E-02 -0.31802085E-02
 -0.11924785E-01 -0.32329382E-02 -0.30649449E-02
  0.11059100E-01  0.44234958E-02  0.21537127E-02
 -0.84880176E-02 -0.95088726E-03  0.11622854E-02
 -0.26612048E-02  0.16110267E-02  0.99700037E-02
 -0.23539440E-02  0.96182833E-02 -0.82658906E-02
 -0.39388246E-02 -0.11371592E-03  0.26846822E-02
  0.12287810E-01  0.10384239E-01 -0.13149343E-02
 -0.64333793E-02 -0.13870745E-01  0.16883884E-01
 -0.10344911E-01 -0.59138000E-02  0.63702967E-02
 -0.24594115E-02  0.49418489E-02 -0.65516173E-03
 -0.11886808E-01 -0.35976826E-02  0.88239207E-02
 -0.13418309E-01  0.64520578E-02  0.31506487E-02
  0.12963448E-01  0.10021858E-01  0.83799830E-02
  0.98672988E-02 -0.35312719E-02  0.31657394E-02
 -0.25654089E-02 -0.63950638E-02  0.71676984E-02
 -0.98210932E-02 -0.13051006E-01 -0.15743868E-01
 -0.43429248E-02 -0.34743957E-02 -0.94481266E-03
 -0.49897576E-02  0.36221571E-02 -0.35341315E-02
 -0.90458284E-03  0.71786407E-02 -0.13159144E-01
 -0.21326153E-01  0.82687755E-02 -0.40295016E-02
  0.19856748E-01  0.12564975E-01  0.41372032E-02
  0.15191852E-02  0.77577182E-02 -0.10122687E-02
  0.24012649E-02 -0.93974708E-02 -0.39417410E-03
  0.44672214E-03  0.11428510E-02  0.16169425E-01
 -0.51253177E-02  0.60422269E-02 -0.91951252E-02
 -0.24197263E-02  0.29131223E-02  0.12956076E-01
 -0.73053426E-02  0.51829599E-03  0.94886515E-02
  0.90810459E-02 -0.16435815E-01  0.25372829E-02
 -0.25568648E-02  0.59972733E-02 -0.79405638E-02
  0.27506047E-02 -0.81651009E-02  0.32487846E-02
 -0.18306574E-01 -0.13120401E-03  0.25486451E-02
 -0.93345073E-03  0.15680576E-02  0.54342991E-02
 -0.10716753E-01 -0.37424925E-02 -0.66393559E-02
  0.30197756E-02  0.13076175E-01 -0.54807722E-02
  0.88444944E-03  0.24302665E-02 -0.13364532E-01
  0.19582907E-02 -0.84456947E-02  0.33262470E-02
  0.25576364E-02 -0.65412775E-02  0.80274764E-02
  0.54517523E-03 -0.35340601E-02 -0.53916233E-03
 -0.30661050E-02 -0.19262457E-02  0.53391483E-02
 -0.17965371E-02 -0.18288121E-02  0.18392941E-02
  0.66473175E-02  0.51093844E-02 -0.38782004E-02
 -0.51248991E-02 -0.75395006E-02  0.52243536E-02
 -0.16071706E-02 -0.10943386E-01  0.11452144E-01
 -0.20178799E-02 -0.72164331E-03 -0.19096179E-02
  0.19556748E-01 -0.20065356E-02  0.43685997E-02
  0.75358176E-02  0.28754410E-02  0.35197923E-02
 -0.95285733E-02  0.18428045E-02  0.84703442E-03
 -0.59550555E-04  0.11006647E-01 -0.12409888E-01
 -0.11784612E-01  0.20860137E-02 -0.35721569E-02
  0.65552924E-02  0.11950370E-02 -0.32717926E-02
  0.74704740E-02 -0.47846127E-02 -0.52525493E-02
  0.96349658E-02  0.58665503E-03  0.40310252E-02
  0.77536638E-02 -0.84923746E-02  0.77877092E-02
 -0.81197010E-02  0.34082279E-02 -0.94145375E-02
  0.37935887E-02 -0.13508128E-01  0.22124751E-02
  0.31535237E-02 -0.29771930E-02  0.29147391E-02
  0.32103760E-02 -0.41836220E-02 -0.29773442E-02
  0.27052638E-03 -0.12086058E-01  0.73236321E-02
 -0.29242822E-02 -0.74638233E-02  0.19102493E-02
 -0.49212027E-02 -0.10350751E-02 -0.56385942E-03
 
           1
   1.00000000000000     
  0.40088811E+00  0.23268980E-04 -0.17273520E-03  0.00000000E+00
  0.98703494E+00  0.44308036E-02  0.10400080E-03
  0.15674588E+00  0.16194548E+00  0.15535642E+00
  0.31840044E+00  0.11278402E-02  0.93155866E-02
  0.49045059E+00  0.17003957E+00  0.17795426E+00
  0.64814953E+00  0.99018170E+00  0.18979221E-01
  0.84121239E+00  0.17125692E+00  0.15448896E+00
  0.98615056E+00  0.33969603E+00  0.31264249E-02
  0.15335657E+00  0.49786718E+00  0.17941972E+00
  0.31981324E+00  0.32787854E+00  0.38073022E-02
  0.48897404E+00  0.48626506E+00  0.15387183E+00
  0.65576146E+00  0.32030951E+00  0.25625081E-01
  0.81624867E+00  0.47856372E+00  0.16609242E+00
  0.98840166E+00  0.66419367E+00  0.99462037E+00
  0.15011105E+00  0.83460811E+00  0.15173578E+00
  0.32424342E+00  0.67082373E+00  0.99552241E+00
  0.50009095E+00  0.84833909E+00  0.19462754E+00
  0.66812985E+00  0.66516287E+00  0.11091733E-01
  0.83348619E+00  0.84514573E+00  0.17168181E+00
  0.43609571E-02  0.99659541E+00  0.33410017E+00
  0.17341951E+00  0.16982939E+00  0.51036376E+00
  0.32371632E+00  0.61545898E-02  0.34522046E+00
  0.49182406E+00  0.16788631E+00  0.51469032E+00
  0.66341393E+00  0.85245793E-02  0.35847560E+00
  0.82879882E+00  0.16244087E+00  0.50453000E+00
  0.59920883E-03  0.32446288E+00  0.34319528E+00
  0.15923412E+00  0.50465362E+00  0.52096689E+00
  0.31962411E+00  0.34100526E+00  0.34949008E+00
  0.49610697E+00  0.49720223E+00  0.50429316E+00
  0.65501024E+00  0.32503761E+00  0.34763399E+00
  0.83346894E+00  0.47457547E+00  0.50297519E+00
  0.31710290E-01  0.69276481E+00  0.33652006E+00
  0.17541186E+00  0.83227854E+00  0.49790947E+00
  0.31301531E+00  0.67323871E+00  0.32732224E+00
  0.48455756E+00  0.83534941E+00  0.51684640E+00
  0.83211450E+00  0.65754912E+00  0.35202627E+00
  0.82788816E+00  0.84566405E+00  0.49285070E+00
  0.68344962E-03  0.98928253E+00  0.67615237E+00
  0.15217571E+00  0.16872846E+00  0.83235147E+00
  0.31685814E+00  0.99881975E+00  0.69550227E+00
  0.48203640E+00  0.16537431E+00  0.83569171E+00
  0.65485677E+00  0.83693013E-02  0.68257981E+00
  0.82575037E+00  0.16828477E+00  0.82437698E+00
  0.92689850E-02  0.33688230E+00  0.67742095E+00
  0.15542619E+00  0.50284668E+00  0.83089600E+00
  0.32703331E+00  0.33381299E+00  0.68213231E+00
  0.49321446E+00  0.50080170E+00  0.84997390E+00
  0.66095962E+00  0.31934136E+00  0.68568441E+00
  0.82358765E+00  0.48999029E+00  0.82473176E+00
  0.99190795E+00  0.66352381E+00  0.67168991E+00
  0.16044299E+00  0.83071159E+00  0.81869984E+00
  0.33832023E+00  0.67239636E+00  0.66720130E+00
  0.49795423E+00  0.83320264E+00  0.85548671E+00
  0.66442153E+00  0.66169195E+00  0.67881884E+00
  0.82241052E+00  0.82430666E+00  0.83734595E+00
  0.79787529E-01  0.11262293E+00  0.12047479E-02
  0.21939708E+00  0.22538988E+00  0.99707202E+00
  0.63845562E-01  0.28863831E+00  0.17021046E+00
  0.24840664E+00  0.57919340E-01  0.18043825E+00
  0.41330772E+00  0.10976797E+00  0.26557932E-02
  0.55767594E+00  0.22242205E+00  0.11070195E-01
  0.37755865E+00  0.28027540E+00  0.17177998E+00
  0.58577643E+00  0.55902352E-01  0.16688242E+00
  0.75644978E+00  0.10499064E+00  0.96724674E-02
  0.89321213E+00  0.23688116E+00  0.99788975E+00
  0.71930615E+00  0.25392888E+00  0.16833403E+00
  0.93845736E+00  0.64461095E-01  0.17985501E+00
  0.87761173E-01  0.45228347E+00  0.99501050E+00
  0.22332916E+00  0.56018821E+00  0.99497758E+00
  0.88840752E-01  0.63298380E+00  0.14494100E+00
  0.25724363E+00  0.40469487E+00  0.17447882E+00
  0.42998249E+00  0.41727599E+00  0.99197615E+00
  0.56074145E+00  0.56068111E+00  0.21244074E-01
  0.39032395E+00  0.60041258E+00  0.15944745E+00
  0.58824706E+00  0.38380891E+00  0.17820945E+00
  0.75946414E+00  0.43122408E+00  0.99035984E+00
  0.87059783E+00  0.57334006E+00  0.11207546E-02
  0.72962685E+00  0.60805229E+00  0.19316045E+00
  0.92122761E+00  0.38691523E+00  0.17311621E+00
  0.99451789E-01  0.76717902E+00  0.98090028E+00
  0.22645380E+00  0.89788826E+00  0.98690215E+00
  0.65487019E-01  0.94864732E+00  0.15197874E+00
  0.16585036E+00  0.70827417E+00  0.39100031E+00
  0.59843671E+00  0.72685170E+00  0.83978357E+00
  0.56855111E+00  0.88478993E+00  0.82382573E-02
  0.39385768E+00  0.94026993E+00  0.18213849E+00
  0.60869478E+00  0.74401088E+00  0.16350948E+00
  0.91131615E+00  0.72068388E+00  0.19195248E+00
  0.90516147E+00  0.89191388E+00  0.19224158E-01
  0.72052513E+00  0.93472935E+00  0.18979911E+00
  0.42332053E-01  0.81492416E+00  0.27596043E+00
  0.95047554E-01  0.11049639E+00  0.34828156E+00
  0.22852670E+00  0.23978856E+00  0.35379276E+00
  0.66987247E-01  0.26213826E+00  0.51871340E+00
  0.26813988E+00  0.70758924E-01  0.50973168E+00
  0.41719160E+00  0.10706977E+00  0.33584866E+00
  0.55553288E+00  0.23399461E+00  0.33805313E+00
  0.40823613E+00  0.28388081E+00  0.52061707E+00
  0.61122027E+00  0.81081569E-01  0.51366761E+00
  0.76783391E+00  0.10117212E+00  0.32831005E+00
  0.89136936E+00  0.22695868E+00  0.34014523E+00
  0.72711247E+00  0.26553686E+00  0.52548223E+00
  0.93419478E+00  0.54745104E-01  0.51170320E+00
  0.94328184E-01  0.42871481E+00  0.36417058E+00
  0.23751845E+00  0.54760681E+00  0.34340299E+00
  0.38447236E-01  0.60077537E+00  0.49139948E+00
  0.26372803E+00  0.38442067E+00  0.52402002E+00
  0.43938047E+00  0.42554521E+00  0.33858551E+00
  0.52183010E+00  0.56734950E+00  0.34067462E+00
  0.38777671E+00  0.60671304E+00  0.50972677E+00
  0.60424660E+00  0.39907549E+00  0.50841087E+00
  0.76489987E+00  0.42220639E+00  0.33820891E+00
  0.89568967E+00  0.53883667E+00  0.32081793E+00
  0.72402183E+00  0.61037757E+00  0.49948648E+00
  0.92803330E+00  0.38322827E+00  0.51182680E+00
  0.29655911E+00  0.74991255E+00  0.51009495E+00
  0.22007293E+00  0.90927095E+00  0.33417242E+00
  0.56354613E-01  0.91087650E+00  0.50807067E+00
  0.26265677E+00  0.75449481E+00  0.16716633E+00
  0.43491023E+00  0.76911888E+00  0.34767544E+00
  0.54218384E+00  0.92049697E+00  0.35613889E+00
  0.37880894E+00  0.93366211E+00  0.52399720E+00
  0.58203551E+00  0.73987282E+00  0.54576667E+00
  0.75113072E+00  0.76893153E+00  0.32810945E+00
  0.89093317E+00  0.90983907E+00  0.33582036E+00
  0.72650213E+00  0.94859963E+00  0.51585844E+00
  0.92081516E+00  0.72874124E+00  0.48968910E+00
  0.11301881E+00  0.89065221E-01  0.64310501E+00
  0.23738880E+00  0.22597746E+00  0.67471052E+00
  0.69405765E-01  0.27630235E+00  0.83070456E+00
  0.26063336E+00  0.75751908E-01  0.84914686E+00
  0.42124377E+00  0.97059352E-01  0.67242645E+00
  0.55761109E+00  0.22536351E+00  0.69497508E+00
  0.39742322E+00  0.26832977E+00  0.84514697E+00
  0.59178682E+00  0.72286238E-01  0.85577534E+00
  0.74201244E+00  0.11804407E+00  0.66614474E+00
  0.89645526E+00  0.23365101E+00  0.67454566E+00
  0.73364929E+00  0.26810330E+00  0.84881536E+00
  0.92580773E+00  0.76299470E-01  0.82410949E+00
  0.85536304E-01  0.44513073E+00  0.68353254E+00
  0.22401875E+00  0.56444263E+00  0.68043529E+00
  0.56974683E-01  0.60228506E+00  0.82907127E+00
  0.25599691E+00  0.38113743E+00  0.83951957E+00
  0.43455363E+00  0.44968026E+00  0.66585208E+00
  0.54707023E+00  0.57499638E+00  0.66590421E+00
  0.39093801E+00  0.60151640E+00  0.84518928E+00
  0.58270116E+00  0.40005540E+00  0.83397698E+00
  0.75335290E+00  0.42239841E+00  0.66977378E+00
  0.90537377E+00  0.55392128E+00  0.63825282E+00
  0.73068374E+00  0.60038662E+00  0.85763520E+00
  0.92358324E+00  0.38281456E+00  0.82451638E+00
  0.89621367E-01  0.76724065E+00  0.67216371E+00
  0.21464298E+00  0.90640552E+00  0.67712159E+00
  0.60950508E-01  0.94011555E+00  0.84990586E+00
  0.26390065E+00  0.72285748E+00  0.83428186E+00
  0.43428885E+00  0.77099368E+00  0.69703194E+00
  0.54707075E+00  0.91384905E+00  0.67416056E+00
  0.39613593E+00  0.93975835E+00  0.85627137E+00
  0.75901404E+00  0.78780423E+00  0.19678450E-01
  0.75257804E+00  0.75785927E+00  0.67604053E+00
  0.88023549E+00  0.89553283E+00  0.67187350E+00
  0.72558635E+00  0.93934104E+00  0.83310965E+00
  0.92387289E+00  0.72295632E+00  0.82490208E+00
  0.44411509E+00  0.75669236E+00  0.21366096E-01
  0.61022738E+00  0.67450261E+00  0.35057176E+00
  0.84873891E-04 -0.16786564E-03 -0.13260050E-03
  0.75001451E-04  0.22784579E-03 -0.16298317E-03
 -0.22633527E-03 -0.11192487E-04 -0.27588292E-03
  0.65494493E-04  0.63438856E-04 -0.97610798E-04
 -0.15952587E-03 -0.51374987E-03  0.35336679E-03
  0.20463579E-04 -0.18483047E-03 -0.72158571E-04
 -0.13402122E-03  0.14895553E-03 -0.50674086E-03
 -0.17000974E-03  0.84163522E-05  0.15239686E-03
  0.30101996E-03 -0.20476628E-03 -0.21211661E-03
 -0.18433120E-03 -0.28908493E-03  0.75762338E-04
 -0.27382854E-03 -0.27973687E-04 -0.21628310E-04
 -0.20993787E-03  0.83688257E-04 -0.51422936E-04
 -0.17393578E-04 -0.14513761E-03  0.12034372E-03
  0.17127546E-04 -0.19792183E-03 -0.31061782E-03
 -0.24743649E-04 -0.69761287E-04  0.80052940E-04
 -0.48328665E-04 -0.69003737E-04 -0.25594195E-04
  0.20772763E-03  0.14760165E-03  0.18691749E-03
  0.29375617E-03 -0.51315503E-03 -0.49665179E-03
 -0.15898961E-04  0.17655826E-04  0.37873974E-03
  0.91590012E-05  0.22001176E-03 -0.57130858E-04
 -0.26591333E-04  0.52570847E-04  0.12147313E-03
  0.32839924E-03  0.37114250E-03  0.39707434E-03
  0.98029003E-04 -0.69601479E-04 -0.22199046E-03
  0.17718984E-03 -0.45477727E-04 -0.18461777E-03
  0.13514207E-03  0.13977327E-03 -0.86894362E-04
  0.24586605E-03  0.10147399E-03  0.34674302E-03
 -0.24269721E-04 -0.43737812E-04  0.29226539E-03
  0.18210662E-03 -0.33198186E-04 -0.18147045E-03
 -0.19905765E-03 -0.20417982E-04 -0.11209673E-03
  0.18432420E-04 -0.17021542E-03 -0.19194993E-03
 -0.51066523E-04 -0.69465847E-04 -0.18425456E-03
 -0.46036849E-04 -0.16091350E-04 -0.57086921E-04
 -0.68882596E-04 -0.32928552E-04 -0.39703430E-03
  0.15167169E-03  0.20571369E-04  0.15251048E-03
 -0.11766637E-03 -0.73740886E-04 -0.68292703E-04
  0.59234023E-04 -0.25940053E-04  0.15945830E-03
 -0.39201561E-03  0.87369525E-04  0.14485607E-03
  0.30297791E-03 -0.20139242E-04  0.79965236E-04
 -0.31317853E-04 -0.12606725E-03  0.39663615E-03
 -0.11362297E-03  0.68135639E-04 -0.27585602E-03
  0.76532237E-04  0.40759818E-05  0.45493664E-03
  0.34019737E-03  0.33665295E-03 -0.14174266E-03
  0.97931795E-04  0.87996655E-04 -0.22467462E-03
  0.18554468E-04  0.14161240E-04 -0.15482119E-03
 -0.66376026E-04  0.12226170E-03  0.33540302E-03
  0.13572295E-03  0.46132145E-03  0.27957915E-03
  0.20361308E-03  0.19045882E-03 -0.65482547E-03
 -0.57675872E-04 -0.49245810E-04  0.63755452E-04
 -0.18789286E-05  0.16257063E-03 -0.17334430E-03
  0.92176955E-04 -0.66569338E-04  0.17937585E-03
  0.97905738E-04  0.10795754E-03 -0.37695572E-05
  0.43149796E-04  0.23086440E-03 -0.24518596E-03
 -0.66326263E-04 -0.23558883E-03 -0.83753488E-05
 -0.41257829E-04 -0.43597022E-03  0.25851236E-03
  0.24265273E-03  0.25663382E-03  0.13590872E-02
  0.26308160E-03 -0.25360948E-03  0.24609204E-03
  0.38397461E-03 -0.37514553E-03 -0.43267482E-03
  0.24192571E-03 -0.22375087E-03 -0.33353171E-03
 -0.42261180E-03  0.60186955E-03 -0.13796324E-03
 -0.44115317E-03  0.57972374E-04 -0.10836482E-02
  0.20542503E-04 -0.67303486E-04 -0.17736448E-03
 -0.45059290E-03  0.12385307E-03  0.51837685E-03
 -0.38120861E-03  0.40983045E-03 -0.88572998E-03
 -0.27554829E-03  0.20632346E-03  0.11051986E-03
  0.15468369E-03  0.83463464E-03 -0.88521852E-03
 -0.95006109E-04  0.80337839E-03  0.11663392E-02
  0.48538724E-03  0.30023788E-04 -0.35158727E-03
  0.46907214E-03  0.36557696E-03 -0.95152495E-03
  0.13242294E-02 -0.42194894E-04 -0.50695466E-03
 -0.82602235E-03  0.11494282E-03  0.48459281E-04
  0.71531017E-03  0.24104674E-03 -0.27708305E-03