CONTCAR-pbo-1\(2)                       
   1.00000000000000     
    14.5545133646957918    0.0759519242655199    0.0045671478875033
     0.0762620929003032   14.6958151557679226    0.0093605629355592
     0.0030512369469085    0.0062661036908851    9.7614513180407680
   Sn   O    Pb
    54   109     1
Direct
  0.0017914989492508 -0.0012515342228464  0.0017019269886761
  0.1636622304584436  0.1670051959720283  0.1658886572488012
  0.3334805883778085  0.0036520327851817  0.0011446159135098
  0.5016716780650424  0.1681631101853156  0.1663544952514122
  0.6719470772327932  0.0045075997214956  0.0004890624189097
  0.8367151680092201  0.1661953487548161  0.1662510582918917
 -0.0031262705768396  0.3310154671391851  0.0011914575638779
  0.1629507322752541  0.4962148492266262  0.1626443978024106
  0.3324756038912545  0.3312678037884504 -0.0003115277261640
  0.5014622108634363  0.4968198327594895  0.1656683218433263
  0.6687878158110536  0.3323577077770274  0.0004675807765192
  0.8324235095488147  0.5005017138604062  0.1668454794968847
  0.0003452332578011  0.6665415742119795  0.0007291505628251
  0.1698708089371555  0.8319247248054894  0.1678118546720732
  0.3356197355851377  0.6639348645319491  0.0005390340247204
  0.5038959458405604  0.8418179928795697  0.1617273023036883
  0.6632862558146473  0.6688301716914917  0.0001978461868081
  0.8335023790108562  0.8321987011178607  0.1671506938325432
  0.0022802591490220 -0.0016982250601506  0.3331755065788942
  0.1631668414991092  0.1660917543886300  0.5001307472331860
  0.3300598889844418  0.0068294629303270  0.3317260840108501
  0.5004945270808969  0.1667826079682299  0.5001721038127929
  0.6756633845346341  0.0065227368668484  0.3312683768458705
  0.8389403710190010  0.1678754895211835  0.4997293042062876
 -0.0030362403889946  0.3313520363052345  0.3318953792767543
  0.1552034107691150  0.4874146102878710  0.4976260268903130
  0.3298023626333101  0.3285228628061171  0.3314416705134240
  0.4965923231604498  0.4783262399577953  0.4956848916646920
  0.6707452081406572  0.3300617792956231  0.3321822637574246
  0.8347825819472030  0.4978867644921324  0.4997782895127521
  0.0004576527610927  0.6654879320285374  0.3335329776299804
  0.1684043646987493  0.8331613881159728  0.5002657677660687
  0.3212266295892326  0.6462356433181486  0.3312570355862030
  0.5160734713785720  0.8777125342748070  0.5048621552360901
  0.6664042601201717  0.6664734684529079  0.3332651468958449
  0.8374988596085300  0.8359290278508397  0.4987287132073445
  0.0014815355886631  0.0000629487426106  0.6671475927022328
  0.1644710668651464  0.1667305271680954  0.8346055186853614
  0.3315077450080713  0.0042586853814241  0.6692838298941951
  0.5015696739286173  0.1677267935754163  0.8340871246571094
  0.6776709326055524  0.0079200088614005  0.6699368099133332
  0.8369267964538613  0.1664264376118995  0.8354787648179729
 -0.0021592946023565  0.3294462852008730  0.6676369046972584
  0.1586520861359019  0.4917961731262829  0.8383080091650440
  0.3297680002148599  0.3290489917016264  0.6672431106520531
  0.5008773376483617  0.4934434376988334  0.8344108549093673
  0.6708581080104288  0.3300885065536123  0.6678704868270673
  0.8350146828682175  0.4979968891237656  0.8352183973084432
  0.0000956104942316  0.6655518128369353  0.6672119335046415
  0.1671698640753295  0.8346959626296130  0.8351354364672489
  0.3018020130262921  0.6502270034518310  0.6717798950793864
  0.5034173686666009  0.8438765979281447  0.8358635231891278
  0.6865936398305595  0.6670095693733613  0.6706568943026583
  0.8381451250508006  0.8365350300711484  0.8362959820646886
  0.1010249826154765  0.1015831544101828  0.0003868229523664
  0.2294295499528277  0.2305457337416795  0.0002062820497947
  0.0620724234998090  0.2674505457850094  0.1664169768637960
  0.2659913583493684  0.0654255992985239  0.1649486419067336
  0.4368189411716478  0.1043904746510683  0.0009033989328157
  0.5653878134910687  0.2330426105745962  0.0002556833716341
  0.3961918389576254  0.2670750344562360  0.1653525094419914
  0.6064458503802379  0.0678326169624667  0.1660015491884028
  0.7722247670862714  0.1042488788109912  0.0011160959332369
  0.8996906290144361  0.2294371302587496  0.0006610926793780
  0.7344625343933143  0.2680794513186275  0.1657066613813287
  0.9366881678985376  0.0626746468707164  0.1675762360561996
  0.0970089088299491  0.4315927832072702  0.0027578740979340
  0.2275756052464122  0.5620832055253530 -0.0031237150977618
  0.0635732491293495  0.6008254807700720  0.1661253497494926
  0.2664645256422710  0.3957895252725371  0.1656152919076313
  0.4373330316290016  0.4312631094467626 -0.0006891682985834
  0.5614798517135411  0.5657293586087375 -0.0016188731023469
  0.3911121428183536  0.5896657333328879  0.1616284127120657
  0.6050819563772902  0.3972668202005530  0.1674508509053940
  0.7681374161628225  0.4361754268773745  0.0006175683310474
  0.8978145995205632  0.5641504527467873  0.0010869375887086
  0.7275655766751147  0.6028121559826877  0.1662369046878333
  0.9319155843714750  0.3957300027884296  0.1663541475117876
  0.1045140050482739  0.7678632216338539  0.0013673131744270
  0.2356826105408024  0.8954766707523950  0.0010297148221910
  0.0681902615622264  0.9347522453204482  0.1674967401943458
  0.2729015541406017  0.7274711312312587  0.1697602546379583
  0.4384299155363188  0.7710761155062528 -0.0011301354119684
  0.5712857458514868  0.9008421732921633 -0.0008014731780809
  0.4007074707104317  0.9419504823875424  0.1674668858070071
  0.5986038547747390  0.7327193132147588  0.1695423668838716
  0.7664919363349356  0.7707727361403677 -0.0013017354697547
  0.9023985158985617  0.8951452985626845  0.0035391921277952
  0.7370680679383590  0.9393191251973639  0.1654103657856563
  0.9353577478207558  0.7299719890030166  0.1675349439877316
  0.1012071550518709  0.1014748056757372  0.3328181982533708
  0.2291998458284905  0.2284962571665053  0.3329968126464341
  0.0626891908814486  0.2680067346536963  0.4989619470070111
  0.2639855763286030  0.0648808223391943  0.5014149391724574
  0.4341361306440867  0.1071728413734151  0.3314217695777464
  0.5678276577959562  0.2295147044430008  0.3339671786394933
  0.3983573694409649  0.2699729294252528  0.4999124848302153
  0.6004925228580835  0.0594839579716232  0.5005188086222454
  0.7724824279873378  0.1061105401793654  0.3347181972740577
  0.8996261041777012  0.2300148346313073  0.3321407715711353
  0.7366017537366605  0.2686524673433468  0.5002223474893552
  0.9370736547371268  0.0631765221116379  0.4993676010556897
  0.0967790176520561  0.4303630507640518  0.3274959137829605
  0.2176764123252770  0.5570755608966969  0.3337973333778206
  0.0612672461448094  0.5974612510475128  0.5004942477992157
  0.2640312601452759  0.3928013807336530  0.4991028847525518
  0.4362434748477029  0.4254522609063741  0.3252384725125728
  0.5612273643414608  0.5608947979565752  0.3413369384530532
  0.3749933815967576  0.5689516796925393  0.4974373537261957
  0.6043831957535999  0.3897462516592528  0.4994880536183365
  0.7680481769137464  0.4361256704351915  0.3339067115869185
  0.8971557742952671  0.5641707694937748  0.3332354636925493
  0.7334021565106377  0.6026574570166514  0.4981564133841755
  0.9348399681529557  0.3958075001085614  0.5005429204932167
  0.1056660148416914  0.7663911463398364  0.3341963301033352
  0.2353203017135900  0.8965654562354473  0.3350777706556421
  0.0661847516869136  0.9343217137085599  0.5010857734987797
  0.2682672206201263  0.7235602119687812  0.4993197519313587
  0.4344925364781269  0.8060821618617553  0.3460156668291773
  0.5770521016400437  0.9056535973020019  0.3245123124812346
  0.4038496193701719  0.9587448319059214  0.4972087069952807
  0.6104851912125957  0.7398619593410301  0.5061025487600056
  0.7685942649179542  0.7695120052099327  0.3350629217741635
  0.9006187683526256  0.8966837802704369  0.3315553384961607
  0.7367505414505566  0.9396277078014963  0.5000531908026117
  0.9379378021746037  0.7317288513005168  0.5002798372018176
  0.1001654686758136  0.1026898661487726  0.6680217913543650
  0.2287726175426087  0.2291815926568229  0.6667729681952750
  0.0629269374213587  0.2678193809381751  0.8353715244109295
  0.2657558940427248  0.0646925993764964  0.8351934964685209
  0.4348720066509362  0.1056273887212984  0.6687066921905412
  0.5677461759754470  0.2294498885838873  0.6661085968548466
  0.3965667161325598  0.2674864414114846  0.8334218464900709
  0.6076906728333402  0.0691160411249400  0.8351916127290995
  0.7735371065814027  0.1069532807189668  0.6660259405479372
  0.9003071615073934  0.2291393770663766  0.6682076010515530
  0.7351571097023997  0.2684355685131800  0.8349419269559409
  0.9361242774787925  0.0623707534809079  0.8348501053547249
  0.0963152592742409  0.4287201323114411  0.6693155398033416
  0.2137156348286493  0.5523203757850956  0.6670377068704074
  0.0617488571301356  0.5989921368278424  0.8343671159847195
  0.2661743855165244  0.3955828910782633  0.8335734631992112
  0.4356579289459972  0.4278447919443040  0.6706407570104029
  0.5723768950545884  0.5528132768341038  0.6638493283543007
  0.3941364122643750  0.5985911925772912  0.8284418079975130
  0.6045193258210375  0.3950545504046480  0.8330639666268914
  0.7687322233623729  0.4360226208105511  0.6672969563538046
  0.8945647029260880  0.5662691370379624  0.6674052114091883
  0.7337508182466642  0.6022850051888599  0.8401288422308413
  0.9341449010310529  0.3954354269040253  0.8338968033364990
  0.1082163922455354  0.7640642687077865  0.6676725996484306
  0.2346581136934470  0.8964486485038120  0.6668054216991579
  0.0659960729805730  0.9351640881596383  0.8337145017521992
  0.2683012699855220  0.7293618336758081  0.8357409092696860
  0.4355275513994113  0.8162843547403229  0.6576246388922429
  0.5831683454007806  0.9068410093306212  0.6795789288088733
  0.4017481011345214  0.9453855488537238  0.8378163295431298
  0.5988351494372428  0.7285059714242503  0.8233111496129730
  0.7758511656919539  0.7721737893522029  0.6686972437617954
  0.9012747994375052  0.8984276641147716  0.6668612897480266
  0.7402029670917348  0.9416428789254568  0.8366622733607203
  0.9376761702296587  0.7319390613983013  0.8339299708680532
  0.4482224293589391  0.7083452501475135  0.3595232020678743
  0.4821484093695301  0.6765460789856252  0.5937431443108353
 
  0.00000000E+00  0.00000000E+00  0.00000000E+00
  0.00000000E+00  0.00000000E+00  0.00000000E+00
  0.00000000E+00  0.00000000E+00  0.00000000E+00
  0.00000000E+00  0.00000000E+00  0.00000000E+00
  0.00000000E+00  0.00000000E+00  0.00000000E+00
  0.00000000E+00  0.00000000E+00  0.00000000E+00
  0.00000000E+00  0.00000000E+00  0.00000000E+00
  0.00000000E+00  0.00000000E+00  0.00000000E+00
  0.00000000E+00  0.00000000E+00  0.00000000E+00
  0.00000000E+00  0.00000000E+00  0.00000000E+00
  0.00000000E+00  0.00000000E+00  0.00000000E+00
  0.00000000E+00  0.00000000E+00  0.00000000E+00
  0.00000000E+00  0.00000000E+00  0.00000000E+00
  0.00000000E+00  0.00000000E+00  0.00000000E+00
  0.00000000E+00  0.00000000E+00  0.00000000E+00
  0.00000000E+00  0.00000000E+00  0.00000000E+00
  0.00000000E+00  0.00000000E+00  0.00000000E+00
  0.00000000E+00  0.00000000E+00  0.00000000E+00
  0.00000000E+00  0.00000000E+00  0.00000000E+00
  0.00000000E+00  0.00000000E+00  0.00000000E+00
  0.00000000E+00  0.00000000E+00  0.00000000E+00
  0.00000000E+00  0.00000000E+00  0.00000000E+00
  0.00000000E+00  0.00000000E+00  0.00000000E+00
  0.00000000E+00  0.00000000E+00  0.00000000E+00
  0.00000000E+00  0.00000000E+00  0.00000000E+00
  0.00000000E+00  0.00000000E+00  0.00000000E+00
  0.00000000E+00  0.00000000E+00  0.00000000E+00
  0.00000000E+00  0.00000000E+00  0.00000000E+00
  0.00000000E+00  0.00000000E+00  0.00000000E+00
  0.00000000E+00  0.00000000E+00  0.00000000E+00
  0.00000000E+00  0.00000000E+00  0.00000000E+00
  0.00000000E+00  0.00000000E+00  0.00000000E+00
  0.00000000E+00  0.00000000E+00  0.00000000E+00
  0.00000000E+00  0.00000000E+00  0.00000000E+00
  0.00000000E+00  0.00000000E+00  0.00000000E+00
  0.00000000E+00  0.00000000E+00  0.00000000E+00
  0.00000000E+00  0.00000000E+00  0.00000000E+00
  0.00000000E+00  0.00000000E+00  0.00000000E+00
  0.00000000E+00  0.00000000E+00  0.00000000E+00
  0.00000000E+00  0.00000000E+00  0.00000000E+00
  0.00000000E+00  0.00000000E+00  0.00000000E+00
  0.00000000E+00  0.00000000E+00  0.00000000E+00
  0.00000000E+00  0.00000000E+00  0.00000000E+00
  0.00000000E+00  0.00000000E+00  0.00000000E+00
  0.00000000E+00  0.00000000E+00  0.00000000E+00
  0.00000000E+00  0.00000000E+00  0.00000000E+00
  0.00000000E+00  0.00000000E+00  0.00000000E+00
  0.00000000E+00  0.00000000E+00  0.00000000E+00
  0.00000000E+00  0.00000000E+00  0.00000000E+00
  0.00000000E+00  0.00000000E+00  0.00000000E+00
  0.00000000E+00  0.00000000E+00  0.00000000E+00
  0.00000000E+00  0.00000000E+00  0.00000000E+00
  0.00000000E+00  0.00000000E+00  0.00000000E+00
  0.00000000E+00  0.00000000E+00  0.00000000E+00
  0.00000000E+00  0.00000000E+00  0.00000000E+00
  0.00000000E+00  0.00000000E+00  0.00000000E+00
  0.00000000E+00  0.00000000E+00  0.00000000E+00
  0.00000000E+00  0.00000000E+00  0.00000000E+00
  0.00000000E+00  0.00000000E+00  0.00000000E+00
  0.00000000E+00  0.00000000E+00  0.00000000E+00
  0.00000000E+00  0.00000000E+00  0.00000000E+00
  0.00000000E+00  0.00000000E+00  0.00000000E+00
  0.00000000E+00  0.00000000E+00  0.00000000E+00
  0.00000000E+00  0.00000000E+00  0.00000000E+00
  0.00000000E+00  0.00000000E+00  0.00000000E+00
  0.00000000E+00  0.00000000E+00  0.00000000E+00
  0.00000000E+00  0.00000000E+00  0.00000000E+00
  0.00000000E+00  0.00000000E+00  0.00000000E+00
  0.00000000E+00  0.00000000E+00  0.00000000E+00
  0.00000000E+00  0.00000000E+00  0.00000000E+00
  0.00000000E+00  0.00000000E+00  0.00000000E+00
  0.00000000E+00  0.00000000E+00  0.00000000E+00
  0.00000000E+00  0.00000000E+00  0.00000000E+00
  0.00000000E+00  0.00000000E+00  0.00000000E+00
  0.00000000E+00  0.00000000E+00  0.00000000E+00
  0.00000000E+00  0.00000000E+00  0.00000000E+00
  0.00000000E+00  0.00000000E+00  0.00000000E+00
  0.00000000E+00  0.00000000E+00  0.00000000E+00
  0.00000000E+00  0.00000000E+00  0.00000000E+00
  0.00000000E+00  0.00000000E+00  0.00000000E+00
  0.00000000E+00  0.00000000E+00  0.00000000E+00
  0.00000000E+00  0.00000000E+00  0.00000000E+00
  0.00000000E+00  0.00000000E+00  0.00000000E+00
  0.00000000E+00  0.00000000E+00  0.00000000E+00
  0.00000000E+00  0.00000000E+00  0.00000000E+00
  0.00000000E+00  0.00000000E+00  0.00000000E+00
  0.00000000E+00  0.00000000E+00  0.00000000E+00
  0.00000000E+00  0.00000000E+00  0.00000000E+00
  0.00000000E+00  0.00000000E+00  0.00000000E+00
  0.00000000E+00  0.00000000E+00  0.00000000E+00
  0.00000000E+00  0.00000000E+00  0.00000000E+00
  0.00000000E+00  0.00000000E+00  0.00000000E+00
  0.00000000E+00  0.00000000E+00  0.00000000E+00
  0.00000000E+00  0.00000000E+00  0.00000000E+00
  0.00000000E+00  0.00000000E+00  0.00000000E+00
  0.00000000E+00  0.00000000E+00  0.00000000E+00
  0.00000000E+00  0.00000000E+00  0.00000000E+00
  0.00000000E+00  0.00000000E+00  0.00000000E+00
  0.00000000E+00  0.00000000E+00  0.00000000E+00
  0.00000000E+00  0.00000000E+00  0.00000000E+00
  0.00000000E+00  0.00000000E+00  0.00000000E+00
  0.00000000E+00  0.00000000E+00  0.00000000E+00
  0.00000000E+00  0.00000000E+00  0.00000000E+00
  0.00000000E+00  0.00000000E+00  0.00000000E+00
  0.00000000E+00  0.00000000E+00  0.00000000E+00
  0.00000000E+00  0.00000000E+00  0.00000000E+00
  0.00000000E+00  0.00000000E+00  0.00000000E+00
  0.00000000E+00  0.00000000E+00  0.00000000E+00
  0.00000000E+00  0.00000000E+00  0.00000000E+00
  0.00000000E+00  0.00000000E+00  0.00000000E+00
  0.00000000E+00  0.00000000E+00  0.00000000E+00
  0.00000000E+00  0.00000000E+00  0.00000000E+00
  0.00000000E+00  0.00000000E+00  0.00000000E+00
  0.00000000E+00  0.00000000E+00  0.00000000E+00
  0.00000000E+00  0.00000000E+00  0.00000000E+00
  0.00000000E+00  0.00000000E+00  0.00000000E+00
  0.00000000E+00  0.00000000E+00  0.00000000E+00
  0.00000000E+00  0.00000000E+00  0.00000000E+00
  0.00000000E+00  0.00000000E+00  0.00000000E+00
  0.00000000E+00  0.00000000E+00  0.00000000E+00
  0.00000000E+00  0.00000000E+00  0.00000000E+00
  0.00000000E+00  0.00000000E+00  0.00000000E+00
  0.00000000E+00  0.00000000E+00  0.00000000E+00
  0.00000000E+00  0.00000000E+00  0.00000000E+00
  0.00000000E+00  0.00000000E+00  0.00000000E+00
  0.00000000E+00  0.00000000E+00  0.00000000E+00
  0.00000000E+00  0.00000000E+00  0.00000000E+00
  0.00000000E+00  0.00000000E+00  0.00000000E+00
  0.00000000E+00  0.00000000E+00  0.00000000E+00
  0.00000000E+00  0.00000000E+00  0.00000000E+00
  0.00000000E+00  0.00000000E+00  0.00000000E+00
  0.00000000E+00  0.00000000E+00  0.00000000E+00
  0.00000000E+00  0.00000000E+00  0.00000000E+00
  0.00000000E+00  0.00000000E+00  0.00000000E+00
  0.00000000E+00  0.00000000E+00  0.00000000E+00
  0.00000000E+00  0.00000000E+00  0.00000000E+00
  0.00000000E+00  0.00000000E+00  0.00000000E+00
  0.00000000E+00  0.00000000E+00  0.00000000E+00
  0.00000000E+00  0.00000000E+00  0.00000000E+00
  0.00000000E+00  0.00000000E+00  0.00000000E+00
  0.00000000E+00  0.00000000E+00  0.00000000E+00
  0.00000000E+00  0.00000000E+00  0.00000000E+00
  0.00000000E+00  0.00000000E+00  0.00000000E+00
  0.00000000E+00  0.00000000E+00  0.00000000E+00
  0.00000000E+00  0.00000000E+00  0.00000000E+00
  0.00000000E+00  0.00000000E+00  0.00000000E+00
  0.00000000E+00  0.00000000E+00  0.00000000E+00
  0.00000000E+00  0.00000000E+00  0.00000000E+00
  0.00000000E+00  0.00000000E+00  0.00000000E+00
  0.00000000E+00  0.00000000E+00  0.00000000E+00
  0.00000000E+00  0.00000000E+00  0.00000000E+00
  0.00000000E+00  0.00000000E+00  0.00000000E+00
  0.00000000E+00  0.00000000E+00  0.00000000E+00
  0.00000000E+00  0.00000000E+00  0.00000000E+00
  0.00000000E+00  0.00000000E+00  0.00000000E+00
  0.00000000E+00  0.00000000E+00  0.00000000E+00
  0.00000000E+00  0.00000000E+00  0.00000000E+00
  0.00000000E+00  0.00000000E+00  0.00000000E+00
  0.00000000E+00  0.00000000E+00  0.00000000E+00
  0.00000000E+00  0.00000000E+00  0.00000000E+00
  0.00000000E+00  0.00000000E+00  0.00000000E+00
  0.00000000E+00  0.00000000E+00  0.00000000E+00
  0.00000000E+00  0.00000000E+00  0.00000000E+00
  0.00000000E+00  0.00000000E+00  0.00000000E+00
