CONTCAR-qvdai                           
   1.00000000000000     
    14.4743895367443027    0.0112378294299857    0.0000000000000000
     0.0112378316792506   14.4743840573675850    0.0000000000000000
     0.0000000000000000    0.0000000000000000    9.7934198193542592
   Sn   Pb   O 
    53     1   107
Direct
  0.9960341300554152  0.9982466885338191  0.9976047384986582
  0.1554091011503920  0.1702775387702751  0.1755236927974698
  0.4928744592233083  0.1751028905294464  0.1550981459157068
  0.6784207565200792  0.9986710433357331  0.0057355443308979
  0.8473908510489820  0.1830962690738095  0.1670448132336759
  0.9999602756866356  0.3310570345426289  0.9901699403673906
  0.1690954325877379  0.5108197046652296  0.1547445234661697
  0.3441921407581830  0.3300111438353843  0.0129895923915248
  0.4891915770098408  0.4963338609405165  0.1774527223200923
  0.6690828103176749  0.3347397686119984  0.0036386590185098
  0.8220626548946761  0.4958034744867985  0.1661389540955192
  0.9983170392820599  0.6676594012532618  0.9921361043607904
  0.1427683264806132  0.8222942955413992  0.1718233935849173
  0.3373338171793979  0.6743627031465085  0.0122791310042565
  0.4994134020805027  0.8424876150737228  0.1737643539587249
  0.6728914894389698  0.6554119211769897  0.9928370045769742
  0.8360792441850092  0.8392761364007857  0.1719687668882582
  0.9973935580322731  0.0040008654432732  0.3319916669759935
  0.1634660625946847  0.1708519613204246  0.5065337618836284
  0.3333910002625710  0.0067648196523138  0.3198528703305244
  0.5094892575113398  0.1557258766865799  0.4822065933062724
  0.6831434118483205  0.9985476956841246  0.3247604088495915
  0.8460427080883156  0.1710033372356595  0.4984471703472977
  0.0014976999090828  0.3462013579294881  0.3334908906591055
  0.1734176816776656  0.5063545976036062  0.4979204351719025
  0.3229409828375560  0.3423135249930933  0.3482755423010753
  0.5027656412435516  0.4970510363160875  0.5044023587489509
  0.6607912269909346  0.3389445732337881  0.3343722333506150
  0.8309802451947687  0.5092443803356504  0.5017916991984348
  0.9918532179731566  0.6536374359306876  0.3293397224670278
  0.1614448786937956  0.8365742006212011  0.4850851517801593
  0.3273043993763652  0.6718715553395276  0.3327387055508098
  0.4970084843347246  0.8354572188438488  0.4987103113418129
  0.6600289781597245  0.6699180828792638  0.3263866557626552
  0.8385738092875734  0.8143446256534554  0.5050280686421896
  0.9967001427140790  0.9997351305558171  0.6676269658478061
  0.1703791257579290  0.1671882630822203  0.8563275708505150
  0.3278283450789480  0.0075936966698063  0.6547888879913243
  0.5080942370985310  0.1693221172424283  0.8335488741426752
  0.6653724614901803  0.9806134207466993  0.6558302028202443
  0.8248942120269924  0.1586949882512086  0.8230860744516298
  0.0027724802232089  0.3318393340125039  0.6664372274396564
  0.1698887698809558  0.4938657371302757  0.8380634112455511
  0.3380617984965685  0.3232521437802689  0.6627808327050476
  0.4942665977289920  0.5043526086444774  0.8423779903315403
  0.6708276168671450  0.3299121686144856  0.6736023102214803
  0.8429021011906003  0.5015430014564570  0.8353171180798467
  0.0090770024497111  0.6683360760728099  0.6774240030879645
  0.1577710757239464  0.8416342330300687  0.8117828840000109
  0.3266324642385011  0.6650102104160078  0.6658433248953382
  0.4841559367254993  0.8205318474459052  0.8426195935764773
  0.6718801517135630  0.6574120273164098  0.6633036584434314
  0.8314094877573959  0.8312859284696963  0.8325365647449000
  0.3423556961693361  0.9975854855316107  0.0059212354964865
  0.0918550608507708  0.0955824541906609  0.0161282034940222
  0.2381398385138726  0.2224388119896142  0.0155406104145065
  0.0555826186963926  0.2794660258250064  0.1659771164262299
  0.2420216022447552  0.0505595462639437  0.1537138542664298
  0.4301018552090952  0.1062839959072175  0.0059977866220182
  0.5661401254498314  0.2447603754617725  0.9986215761845298
  0.3905147073206424  0.2697162275282031  0.1803926018163251
  0.6136523702547332  0.0638301406161735  0.1703374016355916
  0.7949779490288141  0.0894684371566215  0.9879589326597816
  0.9102257951043800  0.2168751152423448  0.9947660052997539
  0.7292543889276589  0.2716977608790873  0.1631041168053793
  0.9453349024574542  0.0661905676488183  0.1732131395273976
  0.1071774902224765  0.4287603228534796  0.9995040730324284
  0.2333888943470471  0.5728263299763079  0.9927263321132187
  0.0718940014113996  0.6134907106308566  0.1611441785308896
  0.2647278666240264  0.3962671164386089  0.1664898810701815
  0.4342656358020002  0.4315683057106948  0.0128494321030448
  0.5765136362221102  0.5496800503645611  0.0151272965007107
  0.4001606665721504  0.6149059201191863  0.1625075186033310
  0.5893963751106274  0.4000358358353502  0.1801508459355934
  0.7823838304512120  0.4221510626016334  0.0106127528649092
  0.8875812014533389  0.5642058887908281  0.0016433443350701
  0.7466441669399805  0.6062716212120799  0.1644481316255761
  0.9255536577648655  0.3905944065898468  0.1627812128818615
  0.0847211635342359  0.7925002273423017  0.9810574364444108
  0.0670538886081403  0.9348813197266054  0.1610962621783202
  0.2469662976984494  0.7261459123900560  0.1695895167697663
  0.4274377550380017  0.7754156759687602  0.0047799198954969
  0.5661056852995687  0.8951163900984215  0.9892862002031916
  0.3906822446685162  0.9313790175903867  0.1720463581865642
  0.5989651797332539  0.7178784880772079  0.1434777628334620
  0.7687518568545104  0.7723171889665572  0.0073330187068041
  0.8898560859459852  0.9016416560270130  0.9947756668567930
  0.7457819681330765  0.9440026468147609  0.1730755585070249
  0.9375994148389069  0.7176576462454868  0.1513106741674618
  0.0998756315266118  0.1050811213452703  0.3516773220800605
  0.2339506731616788  0.2325637472479393  0.3608837485384675
  0.0576609631519216  0.2731733374630256  0.4933868435144901
  0.2644857896186300  0.0634886947028661  0.4870418450243723
  0.4427925527527158  0.0935346684964208  0.3192925185960544
  0.5722323164349502  0.2269589934924902  0.3305969198478083
  0.4103370349650087  0.2744270496470057  0.4877685762986594
  0.6015392130242021  0.0530369368011138  0.4898131556231787
  0.7909669646319435  0.0871597552291972  0.3458352909296323
  0.9048064465381709  0.2289185528570474  0.3369452085193612
  0.7587954057863318  0.2830743081143310  0.4978730163054840
  0.9598907325710204  0.0769888293656623  0.5056949352622606
  0.0972676989576150  0.4484593881518391  0.3344480897797655
  0.2407708312983825  0.5550785458635840  0.3327794483107780
  0.0710236770701520  0.6143303005273577  0.4943243634590450
  0.2732258496305932  0.4047443999275981  0.5104995196595589
  0.4268798097891794  0.4435354729420685  0.3277815817922634
  0.5542326723217846  0.5754968487963362  0.3267125622713193
  0.3711230664826404  0.5892537122657902  0.4812772621928073
  0.6002083304472314  0.4065762276007441  0.5054280375441504
  0.7565701424982152  0.4392893162885300  0.3385700736979119
  0.8972923115511148  0.5482992715099315  0.3308617008531198
  0.7356082440560266  0.6095076526500509  0.4903356919666627
  0.9371678466457072  0.3941035468317631  0.5069649904792910
  0.0994478995781634  0.7489797840104255  0.3315265208780729
  0.2299891982053835  0.8804109284753548  0.3182719205045005
  0.0489876809887047  0.9326441943538530  0.5068760854154351
  0.2592509089904225  0.7274778460532015  0.5019166846493600
  0.4289464130901476  0.7745452570939407  0.3286419668705409
  0.5781603399722467  0.8865571723628149  0.3304218624785560
  0.3885669600706774  0.9465397538565258  0.4930730797624135
  0.6035548854781929  0.7354900201609482  0.5079131409856931
  0.7684763594011083  0.7849843802479233  0.3246881075428149
  0.8989053366641672  0.9038857890177192  0.3296351581246034
  0.7391152648547533  0.9207187497540813  0.4820495776634448
  0.9384659420718962  0.7332905175900277  0.4867871185291431
  0.1064451626469338  0.1137023599180111  0.6770813442308881
  0.2462267928564115  0.2268602778238778  0.6782534429933752
  0.0870792548131282  0.2872327439499919  0.8216026832765354
  0.2599708240224795  0.0587394442813134  0.8353181266700930
  0.4244186982701360  0.1064211721248595  0.6782287092460336
  0.5787275618469044  0.2234509628941308  0.6586179981047071
  0.4029037554737185  0.2554380506141865  0.8548185768531648
  0.6151317357151607  0.0834072398624739  0.8517422477447558
  0.7772198140265295  0.0796780215066777  0.6479999127740597
  0.9035439412023950  0.2299508676069457  0.6933763368509512
  0.7285719993594805  0.2646252815130087  0.8460029444674657
  0.9403467803925196  0.0700886466253444  0.8195446154493693
  0.0970561997522123  0.4481201902275083  0.6729499726721246
  0.2208872288596884  0.5815372603137569  0.6608882347522352
  0.0579277878225920  0.5894608005024975  0.8457029921694129
  0.2800428541302444  0.3980995532627072  0.8303415564005968
  0.4425998652535812  0.4306974865932170  0.6669416935020817
  0.5694343358462318  0.5666690598589259  0.6637429125275287
  0.3982597345451849  0.6046844603209430  0.8252608874476256
  0.6105411435597451  0.3954214170012945  0.8440928162289817
  0.7733041371562530  0.4462391254232191  0.6887262158225788
  0.9113109888792174  0.5625810890215074  0.6679676557439135
  0.7429876188383421  0.6048939866431792  0.8362050362648829
  0.9317251007738570  0.3911735121842331  0.8366594677617015
  0.1047895581786803  0.7590756838298869  0.6607244953305761
  0.2256253557199885  0.8918452633042807  0.6459534549676784
  0.0696419081318870  0.9454830326848329  0.8323920096359830
  0.2580186398375954  0.7347188457170493  0.8490974745825686
  0.4267805517877010  0.7735517729324660  0.6618149100249174
  0.5528256266222508  0.8952203060793626  0.6727869248514432
  0.3712018520178169  0.9193767723035492  0.8270420230120823
  0.5870551083256697  0.7157922309265403  0.8422444672002876
  0.7483609110151926  0.7732733605063560  0.6884613003610818
  0.8986167259988571  0.8928705686455960  0.6732901731846720
  0.7235934862207459  0.9350446840560418  0.8315487380505990
  0.9264339295173554  0.7286111956169037  0.8107128704939564
 
 -0.42627850E-02 -0.20223165E-02 -0.10152912E-02
  0.18098221E-02  0.78714934E-03 -0.30537902E-04
 -0.15763302E-02 -0.47436741E-02  0.70949684E-03
  0.16209880E-02  0.19158744E-02  0.67656276E-03
 -0.10494542E-03  0.11580276E-02  0.20080946E-02
 -0.69637992E-03  0.14717483E-02 -0.55310352E-03
  0.15358022E-03 -0.72286566E-03  0.75819757E-02
 -0.23063182E-02  0.38286721E-02 -0.62040635E-02
  0.48317602E-03  0.32856880E-02  0.35556705E-02
 -0.57831011E-03  0.13407275E-02 -0.18412978E-02
 -0.22042716E-02  0.42873714E-03  0.56355123E-03
 -0.16252438E-02  0.49883617E-02 -0.69738331E-03
  0.82240629E-03 -0.14675855E-02 -0.25549334E-02
 -0.28365133E-02  0.85849424E-03 -0.21412179E-02
  0.25723738E-02 -0.12991971E-02  0.11213573E-02
 -0.15917365E-02 -0.87834394E-03 -0.15019793E-02
 -0.57465008E-02 -0.91784291E-03 -0.14405389E-02
  0.18068326E-02 -0.22481913E-03  0.48414190E-03
  0.33303839E-02  0.42227617E-02  0.12455825E-02
  0.42674042E-02 -0.84157827E-03 -0.42745212E-04
 -0.17820553E-02 -0.57104489E-02  0.19704057E-02
  0.99534415E-03 -0.21927304E-02  0.28988562E-02
 -0.11456364E-02 -0.27738690E-02 -0.29798446E-02
 -0.30751649E-02  0.36091902E-03 -0.40382950E-03
  0.16099907E-02  0.96583995E-03  0.12469545E-03
 -0.17389401E-02 -0.66638650E-03  0.73072224E-03
 -0.19548850E-02 -0.41411055E-02  0.60619454E-03
 -0.37506748E-02 -0.11996946E-02  0.36061825E-02
 -0.16686116E-02  0.57290733E-03  0.23589880E-02
 -0.17550933E-02 -0.49505624E-02  0.10658180E-02
 -0.62341528E-03  0.42259787E-02  0.14533331E-02
  0.36104346E-02 -0.59296397E-03 -0.22830902E-02
  0.22346538E-02  0.31526837E-03 -0.10176999E-02
 -0.10285936E-02 -0.56714455E-02  0.32925034E-02
 -0.71519123E-03 -0.24870376E-02  0.55845192E-03
  0.37462880E-02 -0.21586449E-02 -0.29223034E-02
  0.24758682E-02  0.58757236E-03 -0.19667506E-02
  0.38641429E-02  0.76968668E-03  0.10592587E-02
 -0.22456443E-02  0.28245496E-02 -0.59008736E-02
  0.10403201E-02  0.21470570E-02 -0.26879173E-02
  0.33145109E-02  0.30326591E-03  0.11598958E-02
 -0.21657907E-02 -0.37805319E-02  0.12934219E-02
  0.50293136E-02 -0.23700358E-02  0.32052686E-02
 -0.95586395E-03  0.14394866E-02 -0.22428152E-02
  0.55676393E-02 -0.30441048E-02  0.79507406E-03
  0.27820951E-02 -0.21578058E-02  0.22074459E-02
  0.13976749E-02 -0.24710188E-02 -0.30133369E-03
 -0.19377246E-02  0.46802525E-02 -0.16328140E-02
  0.80095196E-03  0.17850986E-02 -0.19939479E-02
  0.63302787E-03 -0.15700546E-04  0.88088877E-03
 -0.49662392E-03  0.28827269E-02 -0.94289793E-03
 -0.43060125E-02 -0.35672432E-02 -0.27621391E-02
 -0.41168137E-02  0.73639454E-03  0.73112965E-03
  0.71592851E-03  0.14536601E-02 -0.34578213E-03
 -0.46650083E-02  0.15222485E-01  0.17363361E-02
 -0.68952579E-02 -0.11626433E-03 -0.57376996E-02
 -0.97310880E-02  0.11100359E-01  0.99470641E-02
  0.31775167E-02 -0.21923227E-01  0.50080833E-02
  0.12995800E-01 -0.22017601E-02 -0.25709407E-02
 -0.71936776E-02 -0.48079375E-02  0.73254776E-02
  0.55804086E-03 -0.44979936E-02  0.52170240E-02
 -0.57416814E-02 -0.35686946E-02  0.99718622E-02
  0.13014331E-01 -0.39027281E-02  0.35582874E-02
  0.25807113E-02  0.31663482E-02 -0.35592726E-02
  0.12938553E-02  0.11316429E-01  0.19007798E-02
  0.61806221E-02  0.86460521E-02  0.83179356E-03
 -0.61829750E-03  0.76223897E-02  0.64079934E-02
 -0.93110471E-02 -0.77796452E-02 -0.39559424E-02
 -0.19677353E-02 -0.95372454E-02  0.57555386E-02
 -0.30749442E-02  0.66702872E-03 -0.55050635E-02
  0.71893511E-03  0.24767170E-02  0.50811756E-02
  0.83149745E-02  0.10090490E-01 -0.67030430E-02
 -0.54256588E-02 -0.27181368E-02  0.56440000E-03
  0.28652191E-02  0.26717794E-02  0.51974788E-02
  0.12995657E-02 -0.26845251E-02 -0.11184072E-01
  0.12662913E-01  0.33999779E-02 -0.26985436E-02
 -0.13315979E-01  0.71630147E-03 -0.51947812E-02
 -0.75674412E-02 -0.77840253E-02 -0.32596993E-02
 -0.43376004E-02  0.67578860E-02  0.18654620E-02
  0.37954574E-02 -0.27389101E-02 -0.55813135E-03
  0.15313426E-01 -0.16413326E-02 -0.91836585E-02
  0.25897407E-02  0.81907485E-02 -0.12318727E-01
 -0.11607455E-02  0.16339045E-02 -0.20459565E-02
  0.16995435E-02  0.66163742E-02  0.14386750E-02
 -0.42360137E-02 -0.18426261E-02  0.99622332E-03
 -0.17535208E-02 -0.27844576E-02  0.97626580E-03
  0.27251788E-04  0.61526065E-03 -0.34505357E-02
 -0.51583339E-03  0.14064380E-01 -0.10492853E-02
 -0.35635586E-02 -0.63669730E-02 -0.78277634E-02
  0.43474330E-02 -0.88076935E-02 -0.11114624E-01
 -0.78934753E-02  0.17761794E-02  0.12720650E-02
 -0.34696139E-02  0.12382201E-01 -0.68765913E-02
 -0.11242320E-01  0.85782369E-02 -0.11762011E-02
 -0.10957476E-01 -0.54746420E-02 -0.15619504E-02
 -0.25889554E-02  0.39632645E-02  0.35668686E-02
  0.35801318E-02 -0.75399290E-02 -0.38136197E-02
  0.84670777E-02  0.47705639E-02 -0.55403576E-02
 -0.72677513E-02  0.35872378E-02  0.69080460E-02
 -0.11984779E-01  0.43179004E-03 -0.74206264E-02
 -0.10425632E-01  0.78024481E-02  0.24059364E-02
  0.94334884E-02  0.54277091E-02 -0.72882754E-02
  0.44932178E-03  0.75074187E-02  0.11844072E-02
  0.16255821E-02  0.19185960E-02  0.58738212E-03
 -0.56452543E-02  0.89998756E-02 -0.95289242E-02
  0.41852208E-03 -0.16700599E-02 -0.91175795E-02
 -0.16523161E-01  0.10348299E-01 -0.78080527E-02
  0.16781963E-01  0.43925395E-02  0.55347796E-02
  0.13004291E-01  0.16715957E-03  0.56144980E-02
 -0.64807413E-02 -0.31444496E-02  0.97870552E-02
  0.23833427E-02  0.28238203E-02  0.56005759E-02
 -0.28063389E-02  0.11485134E-01 -0.25806955E-02
 -0.39507367E-03 -0.34757215E-02 -0.30032400E-02
  0.40828932E-04 -0.35681802E-02  0.49421447E-02
 -0.34385960E-02 -0.30987434E-02  0.72636949E-03
  0.75872824E-02  0.86494634E-04 -0.32310112E-02
 -0.17768751E-01 -0.93587336E-02  0.45565727E-02
  0.38955032E-02 -0.28178394E-02 -0.28371967E-02
  0.34674910E-02 -0.18493025E-02  0.44175957E-02
  0.33648563E-03 -0.10942767E-01  0.17198681E-03
  0.78621790E-02  0.13867571E-01 -0.92008938E-02
  0.31364963E-03 -0.95212744E-02  0.69771952E-02
 -0.15462284E-02  0.22162210E-02  0.68043382E-02
 -0.30193434E-02 -0.67128401E-02  0.34256597E-02
 -0.23895812E-03 -0.12096935E-02  0.21333848E-03
 -0.22812555E-02 -0.47031920E-02  0.97234397E-02
  0.19567786E-01  0.12162117E-01 -0.31024876E-02
 -0.25437077E-02  0.99164775E-02  0.79451127E-03
  0.34096698E-02  0.12153693E-01 -0.55682678E-02
  0.29695497E-02 -0.20357514E-02  0.68667377E-02
 -0.11579309E-01  0.99737280E-02 -0.28584744E-02
  0.16227678E-01 -0.66136278E-02  0.10195245E-02
  0.17197759E-01  0.25993277E-02 -0.90582925E-02
  0.10864098E-01 -0.10927180E-01  0.11002538E-03
 -0.92146243E-02 -0.34894936E-02 -0.31542005E-02
  0.65929878E-02  0.32668677E-02 -0.28553818E-02
  0.12255961E-02 -0.49021740E-02  0.28887441E-02
  0.23855094E-03 -0.41258916E-03  0.78728372E-02
  0.17986534E-02  0.20198527E-02  0.70477701E-02
  0.16995896E-01  0.15107665E-03  0.67757563E-02
 -0.64415113E-02 -0.62922471E-02  0.27502055E-02
 -0.20679797E-02 -0.91168792E-02  0.16810645E-02
  0.15234590E-02 -0.75825212E-02  0.63825441E-02
 -0.61376252E-02 -0.10985009E-02  0.46606726E-02
  0.64636476E-02 -0.21264575E-02 -0.48048799E-03
 -0.15229904E-01 -0.95516019E-02  0.34839261E-02
  0.74177716E-02  0.85318025E-02 -0.10179480E-01
 -0.48305011E-02  0.98356827E-02 -0.76502732E-02
  0.60316915E-02 -0.12255782E-02 -0.10765261E-01
 -0.23663942E-02 -0.65530310E-03  0.91910328E-02
 -0.50294491E-02  0.21388895E-02  0.69633015E-02
 -0.97982838E-03  0.67884267E-03 -0.98084926E-02
 -0.68770283E-02  0.30033249E-02  0.80747862E-03
  0.21064209E-03 -0.10948955E-02  0.86046556E-02
  0.99255050E-02 -0.10500184E-01  0.64879113E-02
  0.72444942E-02  0.89056019E-02  0.58450539E-02
 -0.96142843E-03  0.70141896E-02 -0.61107737E-02
  0.54692173E-02 -0.55739673E-02  0.12185693E-01
 -0.20740794E-02  0.14913601E-01 -0.41185020E-02
 -0.18347281E-02  0.20559911E-02  0.38727671E-02
 -0.45007614E-02 -0.12891275E-01 -0.90104664E-02
 -0.15831168E-02  0.16481668E-01  0.44727620E-02
 
           1
   1.00000000000000     
  0.44834473E+00  0.30451550E-03 -0.19049219E-03  0.00000000E+00
  0.99573973E+00  0.99810720E+00  0.99750107E+00
  0.15553410E+00  0.17033182E+00  0.17552057E+00
  0.49276581E+00  0.17477525E+00  0.15517059E+00
  0.67853264E+00  0.99880332E+00  0.58046277E-02
  0.84738354E+00  0.18317628E+00  0.16724986E+00
  0.99991209E+00  0.33115875E+00  0.99011346E+00
  0.16910608E+00  0.51076976E+00  0.15551871E+00
  0.34403260E+00  0.33027578E+00  0.12356099E-01
  0.48922478E+00  0.49656084E+00  0.17781579E+00
  0.66904278E+00  0.33483243E+00  0.34506452E-02
  0.82191034E+00  0.49583321E+00  0.16619650E+00
  0.99820449E+00  0.66800412E+00  0.99206489E+00
  0.14282522E+00  0.82219286E+00  0.17156251E+00
  0.33713780E+00  0.67442217E+00  0.12060493E-01
  0.49959119E+00  0.84239772E+00  0.17387886E+00
  0.67278157E+00  0.65535132E+00  0.99268364E+00
  0.83568228E+00  0.83921303E+00  0.17182167E+00
  0.99751840E+00  0.39852363E-02  0.33204110E+00
  0.16369592E+00  0.17114352E+00  0.50666095E+00
  0.33368587E+00  0.67064481E-02  0.31984851E+00
  0.50936645E+00  0.15533145E+00  0.48240779E+00
  0.68321230E+00  0.99839615E+00  0.32505641E+00
  0.84596371E+00  0.17081176E+00  0.49814290E+00
  0.12852248E-02  0.34622646E+00  0.33344966E+00
  0.17352886E+00  0.50642124E+00  0.49793317E+00
  0.32282088E+00  0.34226758E+00  0.34835016E+00
  0.50263081E+00  0.49676504E+00  0.50446426E+00
  0.66053217E+00  0.33886189E+00  0.33474046E+00
  0.83086493E+00  0.50928405E+00  0.50203257E+00
  0.99173223E+00  0.65329551E+00  0.32944855E+00
  0.16140158E+00  0.83686620E+00  0.48523355E+00
  0.32755387E+00  0.67183040E+00  0.33250558E+00
  0.49716285E+00  0.83547888E+00  0.49860639E+00
  0.65995822E+00  0.66952631E+00  0.32672285E+00
  0.83852453E+00  0.81417284E+00  0.50508509E+00
  0.99695908E+00  0.99958579E+00  0.66732857E+00
  0.17055015E+00  0.16722872E+00  0.85612675E+00
  0.32809527E+00  0.76466652E-02  0.65489705E+00
  0.50793894E+00  0.16951738E+00  0.83294634E+00
  0.66544422E+00  0.98076170E+00  0.65555574E+00
  0.82512319E+00  0.15871576E+00  0.82320451E+00
  0.26230538E-02  0.33157826E+00  0.66656930E+00
  0.17023636E+00  0.49370173E+00  0.83839070E+00
  0.33799568E+00  0.32335165E+00  0.66255182E+00
  0.49465142E+00  0.50414200E+00  0.84245917E+00
  0.67101994E+00  0.32976294E+00  0.67382771E+00
  0.84299880E+00  0.50137221E+00  0.83528635E+00
  0.89428787E-02  0.66865953E+00  0.67725728E+00
  0.15782632E+00  0.84175752E+00  0.81157928E+00
  0.32667620E+00  0.66500909E+00  0.66593327E+00
  0.48412147E+00  0.82073103E+00  0.84252331E+00
  0.67158285E+00  0.65716581E+00  0.66302162E+00
  0.83112503E+00  0.83133703E+00  0.83261122E+00
  0.34240508E+00  0.99768588E+00  0.58859279E-02
  0.91531950E-01  0.96634390E-01  0.16305500E-01
  0.23766347E+00  0.22243115E+00  0.14954737E-01
  0.54909726E-01  0.28023345E+00  0.16699280E+00
  0.24224231E+00  0.49044752E-01  0.15422523E+00
  0.43099982E+00  0.10613118E+00  0.57352695E-02
  0.56564339E+00  0.24442859E+00  0.99936958E+00
  0.39055350E+00  0.26940544E+00  0.18092531E+00
  0.61325588E+00  0.63583896E-01  0.17135562E+00
  0.79587729E+00  0.89198109E-01  0.98832227E+00
  0.91040392E+00  0.21709373E+00  0.99440257E+00
  0.72934317E+00  0.27247952E+00  0.16329820E+00
  0.94576144E+00  0.66787571E-01  0.17329807E+00
  0.10713436E+00  0.42928697E+00  0.15838925E-03
  0.23274603E+00  0.57228935E+00  0.99232239E+00
  0.71758567E-01  0.61283191E+00  0.16173187E+00
  0.26451539E+00  0.39631336E+00  0.16592776E+00
  0.43431517E+00  0.43173938E+00  0.13368268E-01
  0.57708756E+00  0.55037673E+00  0.14442853E-01
  0.39978597E+00  0.61471842E+00  0.16256515E+00
  0.58959418E+00  0.40022027E+00  0.18068156E+00
  0.78247376E+00  0.42196553E+00  0.94707543E-02
  0.88845587E+00  0.56444011E+00  0.13677977E-02
  0.74572416E+00  0.60632182E+00  0.16391770E+00
  0.92503126E+00  0.39005703E+00  0.16244837E+00
  0.84421127E-01  0.79296735E+00  0.98124792E+00
  0.67316255E-01  0.93469189E+00  0.16103927E+00
  0.24802435E+00  0.72603170E+00  0.16865178E+00
  0.42761623E+00  0.77598142E+00  0.35220624E-02
  0.56602540E+00  0.89522933E+00  0.98907729E+00
  0.39079931E+00  0.93183604E+00  0.17219326E+00
  0.59867262E+00  0.71775141E+00  0.14357949E+00
  0.76863086E+00  0.77212491E+00  0.74327046E-02
  0.88985794E+00  0.90168416E+00  0.99442333E+00
  0.74574558E+00  0.94497435E+00  0.17296842E+00
  0.93735356E+00  0.71721796E+00  0.15051139E+00
  0.10017646E+00  0.10447239E+00  0.35054241E+00
  0.23340524E+00  0.23268688E+00  0.36101364E+00
  0.57420592E-01  0.27402898E+00  0.49268468E+00
  0.26370862E+00  0.64081948E-01  0.48692174E+00
  0.44203582E+00  0.93157026E-01  0.31913303E+00
  0.57205324E+00  0.22723294E+00  0.33096113E+00
  0.41058478E+00  0.27390594E+00  0.48737917E+00
  0.60212393E+00  0.53366069E-01  0.48924743E+00
  0.79046466E+00  0.87407979E-01  0.34654067E+00
  0.90397842E+00  0.22894903E+00  0.33618749E+00
  0.75807471E+00  0.28361392E+00  0.49811868E+00
  0.96054218E+00  0.77363311E-01  0.50495073E+00
  0.97298339E-01  0.44897803E+00  0.33456903E+00
  0.24088304E+00  0.55521101E+00  0.33283943E+00
  0.70633177E-01  0.61495238E+00  0.49335137E+00
  0.27325485E+00  0.40462900E+00  0.50956853E+00
  0.42573771E+00  0.44425130E+00  0.32698431E+00
  0.55539186E+00  0.57579942E+00  0.32727772E+00
  0.37202149E+00  0.58926456E+00  0.48185056E+00
  0.59976076E+00  0.40635933E+00  0.50642739E+00
  0.75673465E+00  0.43948428E+00  0.33914195E+00
  0.89709781E+00  0.54909290E+00  0.33059819E+00
  0.73558114E+00  0.60926754E+00  0.49002903E+00
  0.93717086E+00  0.39385703E+00  0.50746963E+00
  0.99210502E-01  0.74876588E+00  0.33160069E+00
  0.23051338E+00  0.88041650E+00  0.31794200E+00
  0.47760583E-01  0.93199857E+00  0.50734135E+00
  0.25952019E+00  0.72728296E+00  0.50162698E+00
  0.42918607E+00  0.77441731E+00  0.32909304E+00
  0.57818417E+00  0.88580114E+00  0.33043942E+00
  0.38910940E+00  0.94749741E+00  0.49213358E+00
  0.60357707E+00  0.73483220E+00  0.50862558E+00
  0.76836942E+00  0.78513758E+00  0.32538289E+00
  0.89869710E+00  0.90342218E+00  0.32998495E+00
  0.73909882E+00  0.92063519E+00  0.48207136E+00
  0.93830859E+00  0.73296571E+00  0.48777997E+00
  0.10779640E+00  0.11454156E+00  0.67676455E+00
  0.24605052E+00  0.22754552E+00  0.67833457E+00
  0.87314169E-01  0.28807223E+00  0.82103411E+00
  0.26017609E+00  0.58598640E-01  0.83601928E+00
  0.42361818E+00  0.10711085E+00  0.67793683E+00
  0.57984905E+00  0.22299317E+00  0.65872210E+00
  0.40409177E+00  0.25561671E+00  0.85389364E+00
  0.61588290E+00  0.82651724E-01  0.85175348E+00
  0.77658339E+00  0.79437435E-01  0.64767784E+00
  0.90399926E+00  0.23017621E+00  0.69308478E+00
  0.72865694E+00  0.26428654E+00  0.84629791E+00
  0.94036328E+00  0.70060129E-01  0.82034851E+00
  0.97180356E-01  0.44825964E+00  0.67366962E+00
  0.22206143E+00  0.58154679E+00  0.66158010E+00
  0.57483097E-01  0.58902643E+00  0.84598381E+00
  0.27990047E+00  0.39746980E+00  0.83051321E+00
  0.44270552E+00  0.43017355E+00  0.66759341E+00
  0.56901036E+00  0.56659350E+00  0.66421881E+00
  0.39870641E+00  0.60453720E+00  0.82521183E+00
  0.60948946E+00  0.39476234E+00  0.84444856E+00
  0.77381616E+00  0.44682817E+00  0.68768680E+00
  0.91097673E+00  0.56326087E+00  0.66718649E+00
  0.74340440E+00  0.60480899E+00  0.83510580E+00
  0.93156165E+00  0.39112837E+00  0.83759796E+00
  0.10444197E+00  0.75922372E+00  0.66143551E+00
  0.22555763E+00  0.89189222E+00  0.64495192E+00
  0.69166630E-01  0.94569089E+00  0.83247446E+00
  0.25803325E+00  0.73464319E+00  0.84997609E+00
  0.42746684E+00  0.77282581E+00  0.66247739E+00
  0.55332565E+00  0.89583518E+00  0.67338376E+00
  0.37113505E+00  0.91986142E+00  0.82641806E+00
  0.58743326E+00  0.71540685E+00  0.84348874E+00
  0.74821682E+00  0.77430382E+00  0.68804076E+00
  0.89848986E+00  0.89301271E+00  0.67368562E+00
  0.72328323E+00  0.93415430E+00  0.83062868E+00
  0.92632367E+00  0.72974996E+00  0.81116958E+00
 -0.29032084E-03 -0.14127598E-03 -0.10337453E-03
  0.12514307E-03  0.54711990E-04 -0.61385974E-05
 -0.11561998E-03 -0.32776420E-03  0.66377292E-04
  0.11456582E-03  0.12936203E-03  0.74872580E-04
 -0.38725777E-05  0.86871313E-04  0.20717314E-03
 -0.47403601E-04  0.10155161E-03 -0.59573730E-04
  0.10274332E-04 -0.46198166E-04  0.76732917E-03
 -0.15176337E-03  0.26519380E-03 -0.62614381E-03
  0.28250243E-04  0.22009820E-03  0.37198186E-03
 -0.41002425E-04  0.88783598E-04 -0.19146318E-03
 -0.15774585E-03  0.33105105E-04  0.54583840E-04
 -0.11173961E-03  0.34745353E-03 -0.69264442E-04
  0.55071311E-04 -0.98906809E-04 -0.26101360E-03
 -0.18742291E-03  0.61294024E-04 -0.20794221E-03
  0.17135411E-03 -0.84718189E-04  0.12248607E-03
 -0.10804284E-03 -0.65617365E-04 -0.15776214E-03
 -0.40052359E-03 -0.59673821E-04 -0.13889103E-03
  0.12400813E-03 -0.13936446E-04  0.43703662E-04
  0.23053713E-03  0.29214781E-03  0.11744900E-03
  0.30268781E-03 -0.57712043E-04 -0.12759304E-04
 -0.11924462E-03 -0.39859268E-03  0.19120514E-03
  0.71895236E-04 -0.15335058E-03  0.28487144E-03
 -0.77687210E-04 -0.18691058E-03 -0.31167547E-03
 -0.20971850E-03  0.25009634E-04 -0.40409455E-04
  0.11648549E-03  0.65395080E-04  0.97309626E-05
 -0.12322133E-03 -0.44751549E-04  0.84010144E-04
 -0.12806114E-03 -0.29256242E-03  0.65865276E-04
 -0.26088574E-03 -0.80444404E-04  0.36607997E-03
 -0.11832702E-03  0.47883986E-04  0.23518391E-03
 -0.12417795E-03 -0.34288335E-03  0.10993020E-03
 -0.41433008E-04  0.29650025E-03  0.14703889E-03
  0.25159102E-03 -0.41899697E-04 -0.23369689E-03
  0.15466130E-03  0.21523886E-04 -0.10508556E-03
 -0.71387110E-04 -0.39488912E-03  0.34057088E-03
 -0.41676488E-04 -0.18305353E-03  0.57181801E-04
  0.25844869E-03 -0.15275257E-03 -0.29836944E-03
  0.17344517E-03  0.41040230E-04 -0.19003479E-03
  0.26963849E-03  0.54622293E-04  0.10138135E-03
 -0.15688112E-03  0.19664110E-03 -0.59946227E-03
  0.68932466E-04  0.14537326E-03 -0.27390874E-03
  0.22804679E-03  0.21737395E-04  0.11826029E-03
 -0.14981789E-03 -0.26339077E-03  0.13096336E-03
  0.34613607E-03 -0.16427925E-03  0.33275788E-03
 -0.70323085E-04  0.96494219E-04 -0.23524066E-03
  0.37968914E-03 -0.20778174E-03  0.82422676E-04
  0.18990814E-03 -0.15175861E-03  0.22644953E-03
  0.95054866E-04 -0.17051238E-03 -0.35126420E-04
 -0.13286945E-03  0.33145621E-03 -0.15522692E-03
  0.51690406E-04  0.12952050E-03 -0.20326136E-03
  0.42213708E-04 -0.50738261E-05  0.92936366E-04
 -0.42564200E-04  0.19561747E-03 -0.84958498E-04
 -0.29352714E-03 -0.25128223E-03 -0.28860253E-03
 -0.28081513E-03  0.49585677E-04  0.69199810E-04
  0.53479548E-04  0.99254060E-04 -0.26228826E-04
 -0.35923382E-03  0.10072738E-02  0.20642067E-03
 -0.47107128E-03 -0.17179493E-04 -0.60267043E-03
 -0.71344054E-03  0.80605534E-03  0.10038388E-02
  0.19406753E-03 -0.15122157E-02  0.45928284E-03
  0.86272719E-03 -0.17711054E-03 -0.24825254E-03
 -0.45690976E-03 -0.29457862E-03  0.72056196E-03
  0.23585756E-04 -0.29980525E-03  0.50628700E-03
 -0.37811819E-03 -0.25782241E-03  0.10403549E-02
  0.93279239E-03 -0.25883941E-03  0.29478260E-03
  0.16801827E-03  0.19081285E-03 -0.34459350E-03
  0.73677372E-04  0.79929930E-03  0.15109242E-03
  0.44930407E-03  0.57605134E-03  0.12517496E-03
 -0.46264542E-04  0.50943842E-03  0.63678049E-03
 -0.64305733E-03 -0.52312587E-03 -0.40331299E-03
 -0.13538894E-03 -0.64136693E-03  0.60496262E-03
 -0.21083366E-03  0.42724659E-04 -0.56977823E-03
  0.36176749E-04  0.14428014E-03  0.55537622E-03
  0.59992219E-03  0.70486450E-03 -0.64849023E-03
 -0.38361369E-03 -0.16590860E-03  0.24629754E-04
  0.16745956E-03  0.21030453E-03  0.54670576E-03
  0.12193603E-03 -0.18283924E-03 -0.10854264E-02
  0.83931108E-03  0.21417258E-03 -0.29039501E-03
 -0.87815966E-03  0.19331170E-04 -0.55650045E-03
 -0.52865755E-03 -0.54503447E-03 -0.34421629E-03
 -0.30983559E-03  0.48604235E-03  0.17449330E-03
  0.27569678E-03 -0.20170046E-03 -0.70967332E-04
  0.10241156E-02 -0.10432759E-03 -0.90595158E-03