CONTCAR-qvdai                           
   1.00000000000000     
    14.4743895367443027    0.0112378294299857    0.0000000000000000
     0.0112378316792506   14.4743840573675850    0.0000000000000000
     0.0000000000000000    0.0000000000000000    9.7934198193542592
   Sn   Pb   O 
    53     1   107
Direct
  0.9218632162814274  0.0039316320440586  0.0000000521989459
  0.1632412891795937  0.0919201997111042  0.1955571742152597
  0.5381079663993937  0.2045896908123218  0.2532431878336991
  0.5591318110276369  0.1054112912558855  0.9999802647133987
  0.8122176068864739  0.2131347282803523  0.1786791749313195
  0.0292938779803358  0.2645566918648745  0.9999941021180841
  0.2008330109286196  0.4052614199258575  0.1610423854096021
  0.4394619415639533  0.2262890184160625  0.0000175528714268
  0.5467295656834368  0.4789920292961404  0.1789325560963499
  0.6617011598463363  0.3282950297228299  0.0000169923011322
  0.8251766745256607  0.4920325810689093  0.1536564361345275
  0.9687518020156262  0.6354096201165217  0.0000066241645902
  0.0960247052361936  0.7627744277657841  0.1723238504288976
  0.3373864064215769  0.5885954236882488  0.9999920402757135
  0.4250310682450618  0.8297145598521555  0.1955471006141991
  0.5976460905387445  0.6960148998395888  0.9999622211783766
  0.7385977821460358  0.8673211448569156  0.1610030140656725
  0.9861858383265456  0.0135890677747525  0.3346301798063343
  0.1496746371042792  0.2457112239764183  0.5000278724024332
  0.2658027015422222  0.9324537676824393  0.3734701266445106
  0.4675697130902107  0.1342481026258265  0.4999970605815416
  0.7287711133411958  0.0167241304347290  0.3575538801189880
  0.9016934114961227  0.2425093058082111  0.5000018334325357
  0.0175256824240735  0.3749782605531639  0.2988522362508235
  0.1671296024261759  0.5653458452837015  0.5000028407897864
  0.3500939013804828  0.3953813012185066  0.3575933113796652
  0.5757904638420218  0.5682529475017291  0.5000177181253330
  0.6804498661121469  0.3470695113924130  0.3716311526043130
  0.8660943354709845  0.5330302373406305  0.5000517316016574
  0.9738529051184002  0.6405147603153937  0.2917194241334503
  0.1212936207627115  0.7877517709285934  0.4999917681810652
  0.3470239903050000  0.6528293601991442  0.3346641288236390
  0.5790698148177550  0.8164562079258348  0.4999527488455534
  0.7080542684476742  0.6843904326599096  0.2988054963866547
  0.8986079683125329  0.8337218139066181  0.5000109579381554
  0.9862023483168884  0.0135798726300140  0.6653407636233742
  0.1632024789219150  0.0918848681728905  0.8045305339870756
  0.2657939563579216  0.9324701138484877  0.6265223437339524
  0.5381140315191617  0.2046029368150454  0.7467578421496920
  0.7287641459199600  0.0167211545098721  0.6424275048704279
  0.8122177176652687  0.2131325521148882  0.8213299936048108
  0.0175242231026696  0.3749816617975882  0.7011156844107698
  0.2008260998993711  0.4052647876931013  0.8389807466318502
  0.3500796216953750  0.3953725153194046  0.6424376301222666
  0.5467163255438187  0.4789838170868674  0.8211049545770031
  0.6804505238925689  0.3470723807399586  0.6283893026170294
  0.8251738649856448  0.4920173883510736  0.8464307837928666
  0.9738463272111919  0.6405173618376986  0.7082906011514577
  0.0960192335558653  0.7627639419600244  0.8276636176685125
  0.3470161059209685  0.6528313622577113  0.6652961539058162
  0.4250333807270872  0.8297227368413723  0.8043038056040741
  0.7080761077698748  0.6843811963540682  0.7011327991189528
  0.7385959639045875  0.8673236716132107  0.8390062005161870
  0.3699984945557546  0.0366189153390660  0.9999961559805263
  0.1110048243605733  0.1237334965503794  0.0000353175370871
  0.2961575669747741  0.1533208748185387  0.0000353068092961
  0.0868887566134190  0.2640453985302262  0.1919446735858244
  0.2833046220341751  0.0356304633958651  0.2239743719141160
  0.4580106537038031  0.1255135282439533  0.9999218798249551
  0.5744703270381735  0.2402570744862065  0.0000052086999639
  0.4172245996837990  0.2616825230285493  0.1955467632139768
  0.5947444011419242  0.0835050156013277  0.1954491476714230
  0.7193181328759569  0.1789350877492871  0.9999995726877942
  0.8815501833175928  0.2723683802967231  0.0000083699003650
  0.7118311446048055  0.2841254068750507  0.2048884253957051
  0.9069432174437504  0.0889203330717262  0.1525020315865114
  0.1402773262085951  0.3559212345983935  0.0000077668021242
  0.2208507308867524  0.5059597089177847  0.0000119610674381
  0.0637067445269891  0.6067923997845280  0.1414498764177989
  0.3293129987206322  0.3898514396727239  0.1590226988709283
  0.5124912935179006  0.3855150844729471  0.0000149766703222
  0.6056537732344756  0.5482348524722301  0.0000093471852877
  0.4223570304741913  0.5736628531733675  0.1525405540941951
  0.6174346217549028  0.3784090399609943  0.2049716565484856
  0.7514207495250801  0.4183143961673734  0.0000462552305531
  0.8808505867083374  0.5478167002710501  0.0000369731203034
  0.7555328117478768  0.6381047239751497  0.1289180203690354
  0.9711362355798975  0.4224210759760105  0.1289939257639796
  0.0862691830704758  0.7526730754043930  0.9999964075913036
  0.0492316144869651  0.9424028967566603  0.1782424849767454
  0.2758509323516878  0.7160314766164650  0.1783367009207449
  0.4568222214411961  0.7775093234780207  0.9999404538755069
  0.4865100810976007  0.9626272126613755  0.9999899977236413
  0.3693936986084385  0.9499849524789006  0.2245980839065237
  0.5970522702353778  0.7535855787407832  0.1918560206805842
  0.6890180257647179  0.8069531477207198  0.9999997508509567
  0.8391862169895569  0.8874372478432352  0.9999991046690044
  0.7230392130061176  0.9957502223613669  0.1590677301274726
  0.9402393113204121  0.7304848664671862  0.1414901644523325
  0.0823121820395046  0.1166962194334703  0.3420283410530536
  0.2244952998925819  0.2421096221680247  0.3289485888611014
  0.0177682575123663  0.3004499168391569  0.4999922487699135
  0.1766392831958846  0.9955237719552690  0.4999801575444194
  0.4133545489511732  0.0801097181024848  0.3535374860303412
  0.5847357727909404  0.2511378009634697  0.4020941795194181
  0.3853473337643551  0.3032913687776054  0.5000151130496722
  0.6366564955409713  0.0519367978229874  0.4999848312314245
  0.8127087251055953  0.1324797125892619  0.3483924793277492
  0.8929908238422647  0.3014064612604697  0.3077492460194304
  0.7649981319791934  0.2787429288119819  0.5000075293423580
  0.9531493743327901  0.0923465400373100  0.4999993119653303
  0.1371616618826504  0.4344946793922568  0.3367850233547610
  0.2420064626359629  0.5606780064209692  0.3090144170456887
  0.0463969683313120  0.6094131130765571  0.4999921021843180
  0.2734806161665996  0.4552642650963561  0.5000089084399751
  0.4658930034051288  0.4794413005646352  0.3484876747866077
  0.6348272606353734  0.5597141997521151  0.3078111644288438
  0.4256983087672225  0.6198215719654202  0.4999840502123481
  0.6120073442492151  0.4315634589599613  0.5000055942892347
  0.7786015443411309  0.4453269550001972  0.3432583333727028
  0.8857101817398348  0.5528314894883725  0.2993106819118816
  0.8109047789644663  0.6505133582293561  0.5000488242501062
  0.9835264660211347  0.4776954949605340  0.5000392585762196
  0.0666017118969826  0.7329045001721676  0.3552090721689092
  0.1737716499505275  0.8405151529160986  0.3139733185024061
  0.0127751213046077  0.9101444870747900  0.4999883849912566
  0.2435292677746260  0.6794499653846666  0.4999846388539297
  0.4499683483097351  0.7489909226418688  0.3422299033860682
  0.5754587610995722  0.8911477675095886  0.3288474292278508
  0.3288092562047379  0.8432353879152935  0.5000128499215647
  0.6335992474637343  0.6844315323481283  0.4999884989788012
  0.7677735195975828  0.8038697365418097  0.3368796704133430
  0.8939660409166400  0.9086301192688099  0.3090072720799238
  0.7885488996069990  0.9400485492753541  0.4999920376580066
  0.9428595919582528  0.7130194804337773  0.4999952714086243
  0.0823267067660010  0.1166953256924410  0.6579914251093976
  0.2244964290522788  0.2421530294739996  0.6710999487556092
  0.0868827314787327  0.2640350689133281  0.8080577453894593
  0.2832980813268235  0.0356886256243457  0.7760152564247509
  0.4133672926801169  0.0801055300475433  0.6464709886925529
  0.5847303435775786  0.2511607034370361  0.5978998534564248
  0.4172301528616796  0.2616850557432767  0.8045012126647929
  0.5947556239271785  0.0835179001518745  0.8045212858488431
  0.8127080174582485  0.1324789372042139  0.6516037562923014
  0.8929929028914606  0.3014045774951866  0.6922520493140681
  0.7118376452023580  0.2841350087320598  0.7951335430425530
  0.9069442702182163  0.0889320097656912  0.8475076150397685
  0.1371728157633671  0.4344905321376923  0.6632257582049493
  0.2419970444042634  0.5606885729309410  0.6909855790964131
  0.0637061938632789  0.6067962108663596  0.8585532684797693
  0.3293120195856871  0.3898641498958754  0.8410148393117098
  0.4658899606737604  0.4794362319771719  0.6515180935993166
  0.6348278289869127  0.5597069685831932  0.6922035786370238
  0.4223583862481449  0.5736596624445295  0.8474537098886562
  0.6174364872365343  0.3784096999261012  0.7950564948453055
  0.7786032287096921  0.4453300890063078  0.6567835245062433
  0.8857050685556273  0.5528305571728440  0.7007917509986170
  0.7555207752715125  0.6381134215159192  0.8710697674794999
  0.9711423113377335  0.4224077845736322  0.8710055197679737
  0.0665994950956423  0.7329011587703194  0.6447784699092002
  0.1737658613103851  0.8405136489455367  0.6860075585972450
  0.0492616797060369  0.9424257695760461  0.8217414327973289
  0.2758444977253366  0.7160304760794954  0.8216200035032499
  0.4499762884993214  0.7489744716547286  0.6576814383431886
  0.5754317217797319  0.8911405343786675  0.6710754320113188
  0.3693385269248869  0.9499918735582634  0.7754386208417368
  0.5970627643809032  0.7535846813606627  0.8080792266556519
  0.7677720853955153  0.8038867431375335  0.6631252798433336
  0.8939788192146698  0.9086346470566199  0.6909950497840300
  0.7230250593831021  0.9957469268212176  0.8409104270134776
  0.9402462935280750  0.7304914129290968  0.8585151851904111
 
 -0.74257735E-02 -0.85906053E-03  0.93969055E-07
 -0.64285950E-02 -0.51674953E-02  0.58601880E-03
  0.46369253E-02  0.45913137E-02  0.15365486E-01
  0.22860142E-01 -0.61303034E-02  0.32010408E-06
  0.25459996E-02  0.16483609E-03  0.43276561E-03
  0.51594821E-02 -0.98051642E-02  0.50303090E-06
  0.36124004E-02 -0.12447014E-01 -0.11241327E-02
 -0.58472685E-02  0.23296635E-01  0.73123004E-05
  0.18656446E-03  0.25619648E-02  0.43627687E-03
  0.17286243E-02  0.17483784E-02  0.73422422E-06
 -0.54873246E-02 -0.54728647E-02  0.22497194E-02
  0.88280573E-04  0.79982113E-04 -0.10297323E-05
 -0.58290572E-02 -0.57854040E-02  0.19404472E-02
 -0.82677577E-03 -0.74171506E-02 -0.43156872E-06
 -0.52446578E-02 -0.64665477E-02  0.55758873E-03
 -0.98498940E-02  0.51605646E-02 -0.46400573E-05
 -0.12437321E-01  0.36188813E-02 -0.11300778E-02
 -0.24944711E-02  0.15283646E-02 -0.30572766E-02
  0.12609690E-02  0.70269105E-02  0.16953097E-05
 -0.82081201E-02 -0.82076211E-02 -0.70447720E-02
 -0.49212817E-02 -0.49135492E-02  0.83688618E-06
  0.72389302E-02  0.65832684E-02  0.10697535E-02
  0.64079647E-02  0.76468732E-02  0.38569086E-06
  0.88568522E-03  0.60731537E-02 -0.39376031E-02
  0.55910760E-02  0.50951933E-02 -0.56776069E-06
  0.66163773E-02  0.72297657E-02  0.10745924E-02
  0.76350465E-02  0.63872751E-02  0.13613298E-05
  0.40098865E-02  0.39860472E-02  0.90083914E-03
 -0.92132463E-03 -0.89673503E-03  0.28682342E-05
 -0.14283728E-02 -0.14407202E-02 -0.33828409E-02
 -0.60770789E-02 -0.60940715E-02 -0.97412768E-06
  0.15398081E-02 -0.25068403E-02 -0.30770524E-02
  0.70224601E-02  0.12859844E-02 -0.38587268E-05
  0.60227249E-02  0.89115468E-03 -0.39282693E-02
  0.51022292E-02  0.55918451E-02 -0.44929560E-06
 -0.24927684E-02  0.15275322E-02  0.30542935E-02
 -0.64383935E-02 -0.51806651E-02 -0.57484151E-03
 -0.82147303E-02 -0.82026089E-02  0.70442564E-02
  0.46336180E-02  0.45963518E-02 -0.15363776E-01
  0.72379167E-02  0.65827128E-02 -0.10689169E-02
  0.25461847E-02  0.16386864E-03 -0.43304154E-03
  0.88407895E-03  0.60769139E-02  0.39382742E-02
  0.36111066E-02 -0.12447041E-01  0.11272791E-02
  0.66153566E-02  0.72286954E-02 -0.10743064E-02
  0.18333160E-03  0.25600035E-02 -0.43364695E-03
  0.40101246E-02  0.39877440E-02 -0.89682810E-03
 -0.54855534E-02 -0.54727957E-02 -0.22472895E-02
 -0.14296431E-02 -0.14406172E-02  0.33842954E-02
 -0.58279533E-02 -0.57880387E-02 -0.19392292E-02
  0.15384222E-02 -0.25068099E-02  0.30720242E-02
 -0.52411024E-02 -0.64609094E-02 -0.57301871E-03
  0.60301337E-02  0.89291811E-03  0.39255819E-02
 -0.12437102E-01  0.36167710E-02  0.11288592E-02
 -0.10444237E-01 -0.10437941E-01  0.50849810E-06
  0.65918405E-02  0.69455052E-02  0.23939996E-05
 -0.38461744E-02  0.14343076E-01  0.10650748E-04
 -0.36546296E-02  0.49659649E-02  0.67524431E-02
 -0.47223882E-02 -0.20852700E-02  0.86627293E-02
  0.14024315E-01  0.13498197E-01 -0.10062138E-03
 -0.63681674E-02 -0.65292628E-02  0.17356350E-05
  0.10212111E-01 -0.16729724E-01 -0.15949457E-01
 -0.16779836E-01  0.10156089E-01 -0.15926741E-01
  0.28236744E-01 -0.33612100E-02  0.20262646E-05
  0.92309638E-02 -0.63138923E-02 -0.74347557E-06
 -0.47624647E-02 -0.45895721E-02  0.45092892E-02
  0.22399113E-02  0.47835465E-02 -0.35321653E-03
  0.19437254E-02 -0.14544385E-01  0.23084002E-05
 -0.40383934E-02 -0.63552781E-03 -0.88783935E-06
 -0.14155855E-03  0.17012911E-02  0.50422213E-02
  0.97888868E-02  0.56677434E-02  0.12949234E-02
 -0.32297591E-02  0.27683332E-01  0.38244032E-05
 -0.64182802E-02  0.92175695E-02 -0.22942960E-05
  0.47997982E-02  0.22397742E-02 -0.36141444E-03
 -0.46433807E-02 -0.47756524E-02  0.45337896E-02
  0.52922260E-02  0.52386731E-02 -0.44000079E-06
 -0.91073922E-02 -0.89040968E-02  0.31354773E-05
  0.55362656E-02 -0.10139202E-02  0.43222900E-03
 -0.10706137E-02  0.55910441E-02  0.45277892E-03
 -0.23968326E-02 -0.26862150E-02  0.36640161E-05
 -0.52114638E-02  0.16427662E-01 -0.13551740E-02
  0.16577876E-01 -0.51107320E-02 -0.13108152E-02
  0.68718935E-02  0.64962006E-02 -0.51842850E-05
  0.14620306E-01 -0.32485339E-02  0.41850882E-05
 -0.19583383E-02 -0.47623634E-02  0.89828177E-02
  0.49576979E-02 -0.37040897E-02  0.67109127E-02
 -0.14584174E-01  0.19691906E-02 -0.98509974E-06
 -0.64048172E-03 -0.41162112E-02 -0.23415871E-05
  0.57119013E-02  0.98328327E-02  0.12951345E-02
  0.17729549E-02 -0.14295090E-03  0.50518145E-02
 -0.45733291E-02 -0.53096542E-02  0.73572573E-03
 -0.12407357E-02  0.87343397E-02  0.15556568E-02
  0.42575438E-02 -0.62787265E-03 -0.34672210E-06
 -0.16380736E-01 -0.77130958E-03 -0.86718332E-05
  0.59604614E-02  0.60079651E-02 -0.76708223E-02
  0.11785697E-01  0.11697271E-01  0.74477106E-02
  0.29407359E-02  0.29391046E-02 -0.21953166E-05
  0.29773372E-02  0.29338221E-02  0.57982939E-06
 -0.49372679E-02  0.87081099E-02 -0.28658943E-03
  0.39019882E-02 -0.67315016E-03 -0.10231416E-02
  0.15778877E-02 -0.66387809E-02  0.15644134E-05
 -0.11178691E-02 -0.36630581E-02 -0.27959917E-05
  0.78108359E-02 -0.18998418E-02 -0.23090672E-03
  0.35455591E-02 -0.42475586E-02 -0.37304845E-02
 -0.13528133E-02 -0.33143083E-02 -0.11007236E-04
 -0.18510254E-02  0.62304623E-02  0.80101489E-06
  0.87186276E-02 -0.49105868E-02 -0.29518335E-03
 -0.63511616E-03  0.38963878E-02 -0.10246959E-02
 -0.36433576E-02 -0.12308963E-02  0.94453775E-06
 -0.66516350E-02  0.15261006E-02  0.64444286E-06
  0.17605762E-02  0.17135630E-02 -0.35340598E-02
 -0.14798218E-02 -0.13257806E-02  0.92566886E-03
 -0.24602520E-01 -0.93046898E-02  0.30873800E-04
 -0.94832212E-02 -0.24561233E-01  0.24451258E-04
  0.68369391E-03  0.52167790E-03  0.13434097E-02
  0.18821393E-02  0.18915637E-02  0.34278972E-02
  0.68412275E-02 -0.21633181E-02  0.16193164E-05
 -0.22281050E-02  0.68205530E-02  0.42664168E-06
 -0.53070265E-02 -0.45739809E-02  0.75893224E-03
  0.88134291E-02 -0.11909653E-02  0.16075155E-02
 -0.81952429E-03 -0.16410527E-01  0.60553878E-05
 -0.61948511E-03  0.42962235E-02 -0.14715378E-05
 -0.19559479E-02  0.77962817E-02 -0.18131416E-03
 -0.42081986E-02  0.35787293E-02 -0.37259906E-02
  0.62500564E-02 -0.18523695E-02  0.35019951E-05
 -0.32433877E-02 -0.14159790E-02 -0.82066289E-05
 -0.45580862E-02 -0.53062431E-02 -0.73297340E-03
 -0.12321748E-02  0.87696379E-02 -0.15717202E-02
 -0.36545340E-02  0.49632295E-02 -0.67477567E-02
 -0.47124703E-02 -0.20685446E-02 -0.86763159E-02
  0.59610619E-02  0.60037666E-02  0.76710384E-02
  0.11779808E-01  0.11707031E-01 -0.74453188E-02
  0.10217454E-01 -0.16728941E-01  0.15946639E-01
 -0.16774598E-01  0.10155156E-01  0.15920223E-01
 -0.49392265E-02  0.87016822E-02  0.29348423E-03
  0.39038244E-02 -0.67479520E-03  0.10207529E-02
 -0.47564157E-02 -0.45831377E-02 -0.45056022E-02
  0.22357001E-02  0.47837936E-02  0.35706109E-03
  0.78102764E-02 -0.19021594E-02  0.23341518E-03
  0.35444256E-02 -0.42440102E-02  0.37240998E-02
 -0.13969903E-03  0.17015281E-02 -0.50446191E-02
  0.97895930E-02  0.56714085E-02 -0.12919729E-02
  0.87124925E-02 -0.49143390E-02  0.29599825E-03
 -0.63728051E-03  0.38980138E-02  0.10220178E-02
  0.48013051E-02  0.22385810E-02  0.36542432E-03
 -0.46403624E-02 -0.47735668E-02 -0.45308731E-02
  0.17690322E-02  0.17147673E-02  0.35387617E-02
 -0.14791017E-02 -0.13283408E-02 -0.90890597E-03
  0.55245331E-02 -0.10046468E-02 -0.43954047E-03
 -0.10665477E-02  0.55886970E-02 -0.45345068E-03
  0.68266312E-03  0.51997619E-03 -0.13437747E-02
  0.18776358E-02  0.18955446E-02 -0.34272265E-02
 -0.51907045E-02  0.16453887E-01  0.13529746E-02
  0.16574282E-01 -0.51058092E-02  0.13061118E-02
 -0.52996936E-02 -0.45892824E-02 -0.77371938E-03
  0.87834214E-02 -0.12094668E-02 -0.16178800E-02
 -0.19734600E-02 -0.47575390E-02 -0.89520898E-02
  0.49688189E-02 -0.36869658E-02 -0.67168177E-02
 -0.19542906E-02  0.78018050E-02  0.18550973E-03
 -0.42036418E-02  0.35772541E-02  0.37239337E-02
  0.57057770E-02  0.98343103E-02 -0.12928102E-02
  0.17764540E-02 -0.14247737E-03 -0.50529421E-02
 
           1
   1.00000000000000     
  0.15457217E-02  0.58676849E-04 -0.19049219E-03  0.00000000E+00
  0.92135023E+00  0.38726799E-02  0.61794068E-07
  0.16279743E+00  0.91563535E-01  0.19561701E+00
  0.53842807E+00  0.20490664E+00  0.25481215E+00
  0.56071149E+00  0.10498654E+00  0.99998030E+00
  0.81239350E+00  0.21314598E+00  0.17872336E+00
  0.29650860E-01  0.26387900E+00  0.99999415E+00
  0.20108325E+00  0.40440129E+00  0.16092760E+00
  0.43905672E+00  0.22789884E+00  0.18299526E-04
  0.54674232E+00  0.47916902E+00  0.17897710E+00
  0.66182049E+00  0.32841573E+00  0.17067272E-04
  0.82479786E+00  0.49165477E+00  0.15388615E+00
  0.96875790E+00  0.63541514E+00  0.65190193E-05
  0.95622300E-01  0.76237504E+00  0.17252199E+00
  0.33732968E+00  0.58808303E+00  0.99999200E+00
  0.42466907E+00  0.82926808E+00  0.19560404E+00
  0.59696531E+00  0.69637196E+00  0.99996175E+00
  0.73773832E+00  0.86757183E+00  0.16088762E+00
  0.98601342E+00  0.13694793E-01  0.33431800E+00
  0.14976138E+00  0.24619663E+00  0.50002805E+00
  0.26523606E+00  0.93188716E+00  0.37275079E+00
  0.46722998E+00  0.13390890E+00  0.49999715E+00
  0.72927088E+00  0.17178564E-01  0.35766311E+00
  0.90213571E+00  0.24303727E+00  0.50000187E+00
  0.17586547E-01  0.37539779E+00  0.29845017E+00
  0.16751560E+00  0.56569756E+00  0.50000278E+00
  0.35055062E+00  0.39588043E+00  0.35770304E+00
  0.57631761E+00  0.56869382E+00  0.50001786E+00
  0.68072669E+00  0.34734468E+00  0.37172314E+00
  0.86603073E+00  0.53296833E+00  0.50005202E+00
  0.97375430E+00  0.64041530E+00  0.29137400E+00
  0.12087410E+00  0.78733107E+00  0.49999167E+00
  0.34713051E+00  0.65265609E+00  0.33434993E+00
  0.57955491E+00  0.81654468E+00  0.49995235E+00
  0.70847032E+00  0.68445168E+00  0.29840438E+00
  0.89896017E+00  0.83410787E+00  0.50001091E+00
  0.98603005E+00  0.13685540E-01  0.66565264E+00
  0.16275794E+00  0.91527294E-01  0.80447184E+00
  0.26522686E+00  0.93190386E+00  0.62724163E+00
  0.53843391E+00  0.20492024E+00  0.74518906E+00
  0.72926384E+00  0.17175550E-01  0.64231836E+00
  0.81239362E+00  0.21314374E+00  0.82128578E+00
  0.17584976E-01  0.37540145E+00  0.70151782E+00
  0.20107625E+00  0.40440466E+00  0.83909585E+00
  0.35053627E+00  0.39587157E+00  0.64232793E+00
  0.54672885E+00  0.47916067E+00  0.82106068E+00
  0.68072736E+00  0.34734767E+00  0.62829773E+00
  0.82479517E+00  0.49163958E+00  0.84620131E+00
  0.97374763E+00  0.64041791E+00  0.70863617E+00
  0.95616905E-01  0.76236437E+00  0.82746560E+00
  0.34712253E+00  0.65265809E+00  0.66560984E+00
  0.42467163E+00  0.82927665E+00  0.80424530E+00
  0.70849267E+00  0.68444256E+00  0.70153364E+00
  0.73773652E+00  0.86757421E+00  0.83912147E+00
  0.36927749E+00  0.35898343E-01  0.99999621E+00
  0.11145987E+00  0.12421299E+00  0.35561987E-04
  0.29589107E+00  0.15431201E+00  0.36394351E-04
  0.86636001E-01  0.26438868E+00  0.19263416E+00
  0.28297848E+00  0.35486650E-01  0.22485892E+00
  0.45897884E+00  0.12644533E+00  0.99991161E+00
  0.57403072E+00  0.23980632E+00  0.53859246E-05
  0.41793103E+00  0.26052616E+00  0.19391817E+00
  0.59358458E+00  0.84207576E-01  0.19382288E+00
  0.72126912E+00  0.17870136E+00  0.99999978E+00
  0.88218827E+00  0.27193167E+00  0.82939845E-05
  0.71150236E+00  0.28380858E+00  0.20534887E+00
  0.90709771E+00  0.89250697E-01  0.15246596E+00
  0.14041239E+00  0.35491629E+00  0.80025114E-05
  0.22057176E+00  0.50591602E+00  0.11870411E-04
  0.63696873E-01  0.60690995E+00  0.14196473E+00
  0.32998899E+00  0.39024249E+00  0.15915492E+00
  0.51226667E+00  0.38742783E+00  0.15367178E-04
  0.60520986E+00  0.54887202E+00  0.91129162E-05
  0.42268852E+00  0.57381734E+00  0.15250365E+00
  0.61711408E+00  0.37807935E+00  0.20543460E+00
  0.75178610E+00  0.41867604E+00  0.46210302E-04
  0.88022186E+00  0.54720203E+00  0.37293282E-04
  0.75591535E+00  0.63803438E+00  0.12896216E+00
  0.97106197E+00  0.42280741E+00  0.12904016E+00
  0.86103736E-01  0.75248762E+00  0.99999678E+00
  0.48870686E-01  0.94353812E+00  0.17810411E+00
  0.27699653E+00  0.71567750E+00  0.17820285E+00
  0.45729664E+00  0.77795776E+00  0.99993992E+00
  0.48752034E+00  0.96240199E+00  0.99999043E+00
  0.36925866E+00  0.94965604E+00  0.22551531E+00
  0.59739498E+00  0.75332941E+00  0.19254127E+00
  0.68801033E+00  0.80708998E+00  0.99999965E+00
  0.83914219E+00  0.88715290E+00  0.99999887E+00
  0.72343331E+00  0.99642924E+00  0.15919998E+00
  0.94036181E+00  0.73047490E+00  0.14200600E+00
  0.81996507E-01  0.11632963E+00  0.34210347E+00
  0.22440911E+00  0.24271312E+00  0.32910744E+00
  0.18062435E-01  0.30040631E+00  0.49999221E+00
  0.17550762E+00  0.99547136E+00  0.49997927E+00
  0.41376602E+00  0.80524474E-01  0.35275422E+00
  0.58554939E+00  0.25194531E+00  0.40285466E+00
  0.38555034E+00  0.30349427E+00  0.50001489E+00
  0.63686204E+00  0.52139329E-01  0.49998489E+00
  0.81236715E+00  0.13308160E+00  0.34836322E+00
  0.89326044E+00  0.30135975E+00  0.30764477E+00
  0.76510750E+00  0.27828419E+00  0.50000769E+00
  0.95307234E+00  0.92093528E-01  0.49999903E+00
  0.13770140E+00  0.43436300E+00  0.33676145E+00
  0.24225164E+00  0.56038436E+00  0.30863350E+00
  0.46303684E-01  0.60918421E+00  0.49999098E+00
  0.27335240E+00  0.45569481E+00  0.50000899E+00
  0.46649562E+00  0.47910157E+00  0.34845753E+00
  0.63478317E+00  0.55998343E+00  0.30770653E+00
  0.42544666E+00  0.61973673E+00  0.49998415E+00
  0.61154772E+00  0.43166925E+00  0.50000566E+00
  0.77872309E+00  0.44544525E+00  0.34289747E+00
  0.88560802E+00  0.55273997E+00  0.29940520E+00
  0.80920555E+00  0.64987184E+00  0.50005198E+00
  0.98287261E+00  0.47599913E+00  0.50004176E+00
  0.66648919E-01  0.73294050E+00  0.35534625E+00
  0.17390158E+00  0.84064574E+00  0.31432334E+00
  0.13247881E-01  0.90999466E+00  0.49998855E+00
  0.24337497E+00  0.67992130E+00  0.49998468E+00
  0.44960194E+00  0.74867520E+00  0.34230740E+00
  0.57606772E+00  0.89106501E+00  0.32901157E+00
  0.32875352E+00  0.84210167E+00  0.50001347E+00
  0.63355622E+00  0.68472838E+00  0.49998835E+00
  0.76763797E+00  0.80440847E+00  0.33686116E+00
  0.89367511E+00  0.90887759E+00  0.30862681E+00
  0.78898080E+00  0.93992024E+00  0.49999240E+00
  0.94263559E+00  0.71292183E+00  0.49999443E+00
  0.82012084E-01  0.11632897E+00  0.65791658E+00
  0.22441083E+00  0.24275897E+00  0.67093946E+00
  0.86629982E-01  0.26437816E+00  0.80736874E+00
  0.28297262E+00  0.35545968E-01  0.77512932E+00
  0.41377881E+00  0.80519996E-01  0.64725427E+00
  0.58554355E+00  0.25196888E+00  0.59713962E+00
  0.41793695E+00  0.26052875E+00  0.80612951E+00
  0.59359616E+00  0.84220395E-01  0.80614689E+00
  0.81236631E+00  0.13308038E+00  0.65163372E+00
  0.89326264E+00  0.30135775E+00  0.69235628E+00
  0.71150928E+00  0.28381863E+00  0.79467348E+00
  0.90709847E+00  0.89262391E-01  0.84754407E+00
  0.13771251E+00  0.43435870E+00  0.66324959E+00
  0.24224215E+00  0.56039517E+00  0.69136584E+00
  0.63696451E-01  0.60691377E+00  0.85803817E+00
  0.32998805E+00  0.39025545E+00  0.84088292E+00
  0.46649215E+00  0.47909624E+00  0.65154832E+00
  0.63478359E+00  0.55997631E+00  0.69230794E+00
  0.42268998E+00  0.57381406E+00  0.84749102E+00
  0.61711615E+00  0.37808015E+00  0.79459385E+00
  0.77872535E+00  0.44544846E+00  0.65714487E+00
  0.88560295E+00  0.55273886E+00  0.70069894E+00
  0.75590251E+00  0.63804372E+00  0.87102489E+00
  0.97106833E+00  0.42279395E+00  0.87095922E+00
  0.66646631E-01  0.73293705E+00  0.64464126E+00
  0.17389548E+00  0.84064451E+00  0.68565761E+00
  0.48902184E-01  0.94356281E+00  0.82187958E+00
  0.27698985E+00  0.71567684E+00  0.82175337E+00
  0.44961039E+00  0.74865769E+00  0.65760243E+00
  0.57603861E+00  0.89105650E+00  0.67091023E+00
  0.36920244E+00  0.94966329E+00  0.77452453E+00
  0.59740625E+00  0.75332969E+00  0.80739338E+00
  0.76763665E+00  0.80442586E+00  0.66314422E+00
  0.89368821E+00  0.90888202E+00  0.69137530E+00
  0.72341873E+00  0.99642605E+00  0.84077842E+00
  0.94036903E+00  0.73048147E+00  0.85799923E+00
 -0.52665232E-03 -0.54315055E-04  0.43664002E-08
 -0.45307797E-03 -0.37022535E-03  0.71964523E-04
  0.33208445E-03  0.32889406E-03  0.16107388E-02
  0.15167476E-02 -0.38750878E-03  0.66152906E-08
  0.16490464E-03  0.25222808E-04  0.54169054E-04
  0.36518935E-03 -0.69151476E-03  0.43985007E-07
  0.26036633E-03 -0.88159708E-03 -0.11638624E-03
 -0.36803516E-03  0.15437632E-02  0.67449080E-06
  0.26909335E-04  0.16599178E-03  0.54640775E-04
  0.11960002E-03  0.12093328E-03  0.11659573E-06
 -0.37850428E-03 -0.37742640E-03  0.22660862E-03
 -0.20771255E-05 -0.26391631E-05 -0.10750639E-06
 -0.41919409E-03 -0.41624995E-03  0.18190148E-03
 -0.52041748E-04 -0.52603791E-03 -0.46916611E-07
 -0.37559954E-03 -0.45565057E-03  0.68956801E-04
 -0.69468860E-03  0.36533329E-03 -0.46532031E-06
 -0.88097166E-03  0.26072853E-03 -0.11713293E-03
 -0.17187333E-03  0.10961482E-03 -0.31360950E-03
  0.80910024E-04  0.50221247E-03  0.15826010E-06
 -0.58177340E-03 -0.58170663E-03 -0.70414968E-03
 -0.34793210E-03 -0.34738393E-03  0.78118240E-07
  0.51013608E-03  0.45728226E-03  0.11933788E-03
  0.46581606E-03  0.55297763E-03  0.34448405E-07
  0.67254741E-04  0.43026382E-03 -0.41189495E-03
  0.38183244E-03  0.37073799E-03 -0.62875643E-07
  0.45958223E-03  0.50953683E-03  0.11978288E-03
  0.55215101E-03  0.46434624E-03  0.15568123E-06
  0.27655521E-03  0.27490689E-03  0.10348028E-03
 -0.51747517E-04 -0.50142477E-04  0.33051054E-06
 -0.10726553E-03 -0.10806807E-03 -0.36455593E-03
 -0.44040940E-03 -0.44165668E-03 -0.10128285E-06
  0.11041085E-03 -0.17270756E-03 -0.31567195E-03
  0.50192634E-03  0.82659971E-04 -0.38617956E-06
  0.42672569E-03  0.67673287E-04 -0.41101771E-03
  0.37111921E-03  0.38192138E-03 -0.74201622E-08
 -0.17175739E-03  0.10954999E-03  0.31331035E-03
 -0.45375537E-03 -0.37113433E-03 -0.70798547E-04
 -0.58219353E-03 -0.58133148E-03  0.70405292E-03
  0.33185309E-03  0.32924902E-03 -0.16105387E-02
  0.51006777E-03  0.45724193E-03 -0.11924162E-03
  0.16491742E-03  0.25158259E-04 -0.54202840E-04
  0.67141332E-04  0.43052054E-03  0.41194996E-03
  0.26027957E-03 -0.88159210E-03  0.11671713E-03
  0.45948892E-03  0.50944537E-03 -0.11976554E-03
  0.26683101E-04  0.16585462E-03 -0.54368495E-04
  0.27657815E-03  0.27501875E-03 -0.10308082E-03
 -0.37842104E-03 -0.37745594E-03 -0.22627693E-03
 -0.10735828E-03 -0.10805527E-03  0.36470072E-03
 -0.41912082E-03 -0.41642777E-03 -0.18177767E-03
  0.11031745E-03 -0.17270252E-03  0.31516321E-03
 -0.37535393E-03 -0.45527821E-03 -0.70637836E-04
  0.42723464E-03  0.67791383E-04  0.41074877E-03
 -0.88095764E-03  0.26058830E-03  0.11699703E-03
 -0.71812169E-03 -0.71778855E-03  0.42296383E-07
  0.47762965E-03  0.48678895E-03  0.26434515E-06
 -0.25963796E-03  0.97751849E-03  0.10558854E-05
 -0.22811613E-03  0.33036964E-03  0.70578924E-03
 -0.22044596E-03 -0.22163562E-03  0.91073521E-03
  0.12179146E-02  0.12051062E-02 -0.96474998E-05
 -0.37844756E-03 -0.39023559E-03  0.17487605E-06
  0.68825998E-03 -0.11590545E-02 -0.16638132E-02
 -0.11626323E-02  0.68422934E-03 -0.16610043E-02
  0.19369230E-02 -0.24095501E-03  0.19538274E-06
  0.63918379E-03 -0.42339505E-03 -0.77232482E-07
 -0.34969151E-03 -0.27736634E-03  0.51593957E-03
  0.13969414E-03  0.32931733E-03 -0.54556732E-04
  0.13760083E-03 -0.10179605E-02  0.22541472E-06
 -0.29776774E-03 -0.56612417E-04 -0.88224130E-07
 -0.34091779E-04  0.12933587E-03  0.47024990E-03
  0.66997242E-03  0.39453404E-03  0.13185484E-03
 -0.23200207E-03  0.18987650E-02  0.39071764E-06
 -0.43066895E-03  0.63864634E-03 -0.22771477E-06
  0.33031730E-03  0.13972757E-03 -0.55337908E-04
 -0.28099117E-03 -0.35049480E-03  0.51831672E-03
  0.30557136E-03  0.30173032E-03 -0.27520535E-07
 -0.61980091E-03 -0.60564162E-03  0.35679950E-06
  0.37103838E-03 -0.39493584E-04  0.41145640E-04
 -0.43339837E-04  0.37469005E-03  0.43252665E-04
 -0.18552549E-03 -0.20501754E-03  0.40843206E-06
 -0.38428766E-03  0.11381443E-02 -0.10078894E-03
  0.11482912E-02 -0.37729240E-03 -0.96452097E-04