CONTCAR-qvdai                           
   1.00000000000000     
    14.4743895367443027    0.0112378294299857    0.0000000000000000
     0.0112378316792506   14.4743840573675850    0.0000000000000000
     0.0000000000000000    0.0000000000000000    9.7934198193542592
   Sn   Pb   O 
    53     1   107
Direct
  0.9994142721268611  0.0007564077239678 -0.0000000000000000
  0.1647531517362419  0.1684683194021070  0.1672272873660051
  0.5036004013977292  0.1702672761750707  0.1686118507976644
  0.6665684431639903  0.0006145976736823 -0.0000000000000000
  0.8333372887115277  0.1669477753034892  0.1667907883839703
  0.9991221986671418  0.3344332337505056 -0.0000000000000000
  0.1669698695015151  0.4999769949555558  0.1665435313748265
  0.3339479136705853  0.3332354447329436 -0.0000000000000000
  0.5002806061572451  0.5000035948501295  0.1667909995975165
  0.6674577204386626  0.3341242081049248 -0.0000000000000000
  0.8322777121149433  0.4989441841986480  0.1664879152889657
  0.9983464962087636  0.6650132171430583 -0.0000000000000000
  0.1585529906672092  0.8252197124610474  0.1802015947183128
  0.3340895582648628  0.6660809919327570 -0.0000000000000000
  0.5018015241266535  0.8314198571748997  0.1672273498050759
  0.6677665194132592  0.6657887256449909 -0.0000000000000000
  0.8333101300570607  0.8336366583366521  0.1665434553432792
  0.9999809698475349  0.0009161236680602  0.3340335900778297
  0.1663354294624255  0.1677429332355569  0.5000000000000000
  0.3330369335134668  0.9997036673791063  0.3355562896805131
  0.4989246944590597  0.1655917149789267  0.5000000000000000
  0.6670940126244541  0.0001723883836608  0.3334062041204849
  0.8334980890982538  0.1670667163892133  0.5000000000000000
  0.9997113583989884  0.3340122736042396  0.3335437151022352
  0.1667241117758441  0.5003117048969961  0.5000000000000000
  0.3335056999564334  0.3337611965951847  0.3334063399773786
  0.5004006751294539  0.5001653378262932  0.5000000000000000
  0.6669572913278051  0.3336238755558517  0.3337323177184737
  0.8319507659169106  0.4986168357378022  0.5000000000000000
  0.9966648968480232  0.6633316253022687  0.3344190535006211
  0.1670941439245781  0.8337609652739659  0.5000000000000000
  0.3342494046020310  0.6666477137303065  0.3340337231984518
  0.5010762318423811  0.8330021475840581  0.5000000000000000
  0.6673458059198105  0.6663778545067327  0.3335435312171005
  0.8336447212299112  0.8333906443922620  0.5000000000000000
  0.9999809698475349  0.0009161236680602  0.6659664099221704
  0.1647531517362419  0.1684683194021070  0.8327727126339949
  0.3330369335134668  0.9997036673791063  0.6644437103194869
  0.5036004013977292  0.1702672761750707  0.8313881492023356
  0.6670940126244541  0.0001723883836608  0.6665937958795151
  0.8333372887115277  0.1669477753034892  0.8332092116160297
  0.9997113583989884  0.3340122736042396  0.6664562848977648
  0.1669698695015151  0.4999769949555558  0.8334564686251735
  0.3335056999564334  0.3337611965951847  0.6665936600226213
  0.5002806061572451  0.5000035948501295  0.8332090004024835
  0.6669572913278051  0.3336238755558517  0.6662676822815262
  0.8322777121149433  0.4989441841986480  0.8335120847110343
  0.9966648968480232  0.6633316253022687  0.6655809464993789
  0.1585529906672092  0.8252197124610474  0.8197984052816873
  0.3342494046020310  0.6666477137303065  0.6659662768015483
  0.5018015241266535  0.8314198571748997  0.8327726501949241
  0.6673458059198105  0.6663778545067327  0.6664564687828994
  0.8333101300570607  0.8336366583366521  0.8334565446567208
  0.3387608976758849  0.0054273918875176 -0.0000000000000000
  0.1022356699268651  0.1020720096428753 -0.0000000000000000
  0.2333421401059173  0.2285608223143415 -0.0000000000000000
  0.0643710640806422  0.2705770122195192  0.1660895131807386
  0.2619625690012716  0.0613846961508169  0.1740314182273354
  0.4419553384301099  0.1086220871032682 -0.0000000000000000
  0.5667480797227713  0.2334149573967397 -0.0000000000000000
  0.3986746946394553  0.2695929479301099  0.1671668004458376
  0.6029261809493989  0.0653415809096479  0.1671668430008460
  0.7697921418851212  0.1017991682218740 -0.0000000000000000
  0.8984704480206287  0.2307696414271699 -0.0000000000000000
  0.7313752670823429  0.2691037327609582  0.1670423831959209
  0.9360916167045348  0.0637940993599057  0.1668429279392000
  0.1012037113808651  0.4370734388054391 -0.0000000000000000
  0.2307262116561851  0.5658776254701968 -0.0000000000000000
  0.0663822756665038  0.6051731770481932  0.1661680665615688
  0.2685257233357248  0.3975542019261006  0.1662045024519225
  0.4351326772788090  0.4364587345783750 -0.0000000000000000
  0.5641027333719787  0.5651372629856052 -0.0000000000000000
  0.3971275722977293  0.6027584109352633  0.1668428110078252
  0.6024374116321926  0.3980420796608622  0.1670423508497347
  0.7687556764355464  0.4354215042626494 -0.0000000000000000
  0.8972667956980062  0.5639336258225541 -0.0000000000000000
  0.7315115143086954  0.6016941084730885  0.1667747466274915
  0.9350284170869241  0.3981788887242342  0.1667746733247623
  0.1069781343170990  0.7736448903629127 -0.0000000000000000
  0.0689896177658064  0.9360845020129384  0.1645412311248607
  0.2694179297341174  0.7356566997516062  0.1645412170382089
  0.4354053779881616  0.7689023460692279 -0.0000000000000000
  0.5618940802631857  0.9000088744354560 -0.0000000000000000
  0.3947178009735662  0.9286290573142130  0.1740315793255421
  0.6039104642227998  0.7310375557996553  0.1660897126521113
  0.7704066342300326  0.7678700580796124 -0.0000000000000000
  0.8992105886865110  0.8973930654832947 -0.0000000000000000
  0.7308874117241636  0.9351925819224761  0.1662046752989676
  0.9385063741273849  0.7330491435274435  0.1661681381306803
  0.1006351184105523  0.1036549360799991  0.3340952097373139
  0.2314751896840483  0.2312177826905299  0.3332759910550225
  0.0649364400353033  0.2705518893126624  0.5000000000000000
  0.2671100114814100  0.0632101494161302  0.5000000000000000
  0.4354369095128805  0.1021037793429473  0.3313291017794728
  0.5651334542385337  0.2318002485941117  0.3360523144429743
  0.3974324204330572  0.2685455462705056  0.5000000000000000
  0.6018786567109691  0.0640992618165457  0.5000000000000000
  0.7694724487384627  0.1020433696103073  0.3333432266638316
  0.8986474085690435  0.2308746556715802  0.3331319726784518
  0.7319478071318961  0.2694746862097757  0.5000000000000000
  0.9349587472831969  0.0641961694956714  0.5000000000000000
  0.1017426824712783  0.4365905108523709  0.3327977333282091
  0.2304425146841073  0.5662834647405854  0.3327637310995689
  0.0621184271809285  0.5996723290368704  0.5000000000000000
  0.2686928014486521  0.3983432543258223  0.5000000000000000
  0.4353768754593692  0.4361397594328843  0.3333436483178464
  0.5642082986811614  0.5653144272742625  0.3331317991739273
  0.3975294482808615  0.6016253749821913  0.5000000000000000
  0.6028082162790936  0.3986143952743084  0.5000000000000000
  0.7684836634856756  0.4351499769217076  0.3330990991868054
  0.8963215354813994  0.5629883974492966  0.3325844256616743
  0.7314638312454695  0.6016490891376924  0.5000000000000000
  0.9349827176666685  0.3981304891543251  0.5000000000000000
  0.0985232955295052  0.7651888758859491  0.3413590725566696
  0.2292994362398634  0.8959671706013030  0.3325325066228334
  0.0649821257378283  0.9357193697450403  0.5000000000000000
  0.2690539147541277  0.7316503798025527  0.5000000000000000
  0.4369884139063212  0.7673017976829197  0.3340951865246359
  0.5645509670230895  0.8981420004707281  0.3332760003394500
  0.3965430923083287  0.9337765078781178  0.5000000000000000
  0.6038854717007626  0.7316028078812021  0.5000000000000000
  0.7699237541996259  0.7684090238296432  0.3327975155199239
  0.8996164112298213  0.8971093142878036  0.3327637843393921
  0.7316762958527568  0.9353595567351798  0.5000000000000000
  0.9330055918287596  0.7287852932964486  0.5000000000000000
  0.1006351184105523  0.1036549360799991  0.6659047902626860
  0.2314751896840483  0.2312177826905299  0.6667240089449774
  0.0643710640806422  0.2705770122195192  0.8339104868192614
  0.2619625690012716  0.0613846961508169  0.8259685817726646
  0.4354369095128805  0.1021037793429473  0.6686708982205273
  0.5651334542385337  0.2318002485941117  0.6639476855570257
  0.3986746946394553  0.2695929479301099  0.8328331995541624
  0.6029261809493989  0.0653415809096479  0.8328331569991539
  0.7694724487384627  0.1020433696103073  0.6666567733361685
  0.8986474085690435  0.2308746556715802  0.6668680273215483
  0.7313752670823429  0.2691037327609582  0.8329576168040791
  0.9360916167045348  0.0637940993599057  0.8331570720608000
  0.1017426824712783  0.4365905108523709  0.6672022666717909
  0.2304425146841073  0.5662834647405854  0.6672362689004311
  0.0663822756665038  0.6051731770481932  0.8338319334384312
  0.2685257233357248  0.3975542019261006  0.8337954975480775
  0.4353768754593692  0.4361397594328843  0.6666563516821536
  0.5642082986811614  0.5653144272742625  0.6668682008260728
  0.3971275722977293  0.6027584109352633  0.8331571889921748
  0.6024374116321926  0.3980420796608622  0.8329576491502653
  0.7684836634856756  0.4351499769217076  0.6669009008131946
  0.8963215354813994  0.5629883974492966  0.6674155743383257
  0.7315115143086954  0.6016941084730885  0.8332252533725085
  0.9350284170869241  0.3981788887242342  0.8332253266752377
  0.0985232955295052  0.7651888758859491  0.6586409274433304
  0.2292994362398634  0.8959671706013030  0.6674674933771667
  0.0689896177658064  0.9360845020129384  0.8354587688751393
  0.2694179297341174  0.7356566997516062  0.8354587829617911
  0.4369884139063212  0.7673017976829197  0.6659048134753640
  0.5645509670230895  0.8981420004707281  0.6667239996605500
  0.3947178009735662  0.9286290573142130  0.8259684206744579
  0.6039104642227998  0.7310375557996553  0.8339102873478886
  0.7699237541996259  0.7684090238296432  0.6672024844800761
  0.8996164112298213  0.8971093142878036  0.6672362156606079
  0.7308874117241636  0.9351925819224761  0.8337953247010323
  0.9385063741273849  0.7330491435274435  0.8338318618693197
 
  0.00000000E+00  0.00000000E+00  0.00000000E+00
  0.00000000E+00  0.00000000E+00  0.00000000E+00
  0.00000000E+00  0.00000000E+00  0.00000000E+00
  0.00000000E+00  0.00000000E+00  0.00000000E+00
  0.00000000E+00  0.00000000E+00  0.00000000E+00
  0.00000000E+00  0.00000000E+00  0.00000000E+00
  0.00000000E+00  0.00000000E+00  0.00000000E+00
  0.00000000E+00  0.00000000E+00  0.00000000E+00
  0.00000000E+00  0.00000000E+00  0.00000000E+00
  0.00000000E+00  0.00000000E+00  0.00000000E+00
  0.00000000E+00  0.00000000E+00  0.00000000E+00
  0.00000000E+00  0.00000000E+00  0.00000000E+00
  0.00000000E+00  0.00000000E+00  0.00000000E+00
  0.00000000E+00  0.00000000E+00  0.00000000E+00
  0.00000000E+00  0.00000000E+00  0.00000000E+00
  0.00000000E+00  0.00000000E+00  0.00000000E+00
  0.00000000E+00  0.00000000E+00  0.00000000E+00
  0.00000000E+00  0.00000000E+00  0.00000000E+00
  0.00000000E+00  0.00000000E+00  0.00000000E+00
  0.00000000E+00  0.00000000E+00  0.00000000E+00
  0.00000000E+00  0.00000000E+00  0.00000000E+00
  0.00000000E+00  0.00000000E+00  0.00000000E+00
  0.00000000E+00  0.00000000E+00  0.00000000E+00
  0.00000000E+00  0.00000000E+00  0.00000000E+00
  0.00000000E+00  0.00000000E+00  0.00000000E+00
  0.00000000E+00  0.00000000E+00  0.00000000E+00
  0.00000000E+00  0.00000000E+00  0.00000000E+00
  0.00000000E+00  0.00000000E+00  0.00000000E+00
  0.00000000E+00  0.00000000E+00  0.00000000E+00
  0.00000000E+00  0.00000000E+00  0.00000000E+00
  0.00000000E+00  0.00000000E+00  0.00000000E+00
  0.00000000E+00  0.00000000E+00  0.00000000E+00
  0.00000000E+00  0.00000000E+00  0.00000000E+00
  0.00000000E+00  0.00000000E+00  0.00000000E+00
  0.00000000E+00  0.00000000E+00  0.00000000E+00
  0.00000000E+00  0.00000000E+00  0.00000000E+00
  0.00000000E+00  0.00000000E+00  0.00000000E+00
  0.00000000E+00  0.00000000E+00  0.00000000E+00
  0.00000000E+00  0.00000000E+00  0.00000000E+00
  0.00000000E+00  0.00000000E+00  0.00000000E+00
  0.00000000E+00  0.00000000E+00  0.00000000E+00
  0.00000000E+00  0.00000000E+00  0.00000000E+00
  0.00000000E+00  0.00000000E+00  0.00000000E+00
  0.00000000E+00  0.00000000E+00  0.00000000E+00
  0.00000000E+00  0.00000000E+00  0.00000000E+00
  0.00000000E+00  0.00000000E+00  0.00000000E+00
  0.00000000E+00  0.00000000E+00  0.00000000E+00
  0.00000000E+00  0.00000000E+00  0.00000000E+00
  0.00000000E+00  0.00000000E+00  0.00000000E+00
  0.00000000E+00  0.00000000E+00  0.00000000E+00
  0.00000000E+00  0.00000000E+00  0.00000000E+00
  0.00000000E+00  0.00000000E+00  0.00000000E+00
  0.00000000E+00  0.00000000E+00  0.00000000E+00
  0.00000000E+00  0.00000000E+00  0.00000000E+00
  0.00000000E+00  0.00000000E+00  0.00000000E+00
  0.00000000E+00  0.00000000E+00  0.00000000E+00
  0.00000000E+00  0.00000000E+00  0.00000000E+00
  0.00000000E+00  0.00000000E+00  0.00000000E+00
  0.00000000E+00  0.00000000E+00  0.00000000E+00
  0.00000000E+00  0.00000000E+00  0.00000000E+00
  0.00000000E+00  0.00000000E+00  0.00000000E+00
  0.00000000E+00  0.00000000E+00  0.00000000E+00
  0.00000000E+00  0.00000000E+00  0.00000000E+00
  0.00000000E+00  0.00000000E+00  0.00000000E+00
  0.00000000E+00  0.00000000E+00  0.00000000E+00
  0.00000000E+00  0.00000000E+00  0.00000000E+00
  0.00000000E+00  0.00000000E+00  0.00000000E+00
  0.00000000E+00  0.00000000E+00  0.00000000E+00
  0.00000000E+00  0.00000000E+00  0.00000000E+00
  0.00000000E+00  0.00000000E+00  0.00000000E+00
  0.00000000E+00  0.00000000E+00  0.00000000E+00
  0.00000000E+00  0.00000000E+00  0.00000000E+00
  0.00000000E+00  0.00000000E+00  0.00000000E+00
  0.00000000E+00  0.00000000E+00  0.00000000E+00
  0.00000000E+00  0.00000000E+00  0.00000000E+00
  0.00000000E+00  0.00000000E+00  0.00000000E+00
  0.00000000E+00  0.00000000E+00  0.00000000E+00
  0.00000000E+00  0.00000000E+00  0.00000000E+00
  0.00000000E+00  0.00000000E+00  0.00000000E+00
  0.00000000E+00  0.00000000E+00  0.00000000E+00
  0.00000000E+00  0.00000000E+00  0.00000000E+00
  0.00000000E+00  0.00000000E+00  0.00000000E+00
  0.00000000E+00  0.00000000E+00  0.00000000E+00
  0.00000000E+00  0.00000000E+00  0.00000000E+00
  0.00000000E+00  0.00000000E+00  0.00000000E+00
  0.00000000E+00  0.00000000E+00  0.00000000E+00
  0.00000000E+00  0.00000000E+00  0.00000000E+00
  0.00000000E+00  0.00000000E+00  0.00000000E+00
  0.00000000E+00  0.00000000E+00  0.00000000E+00
  0.00000000E+00  0.00000000E+00  0.00000000E+00
  0.00000000E+00  0.00000000E+00  0.00000000E+00
  0.00000000E+00  0.00000000E+00  0.00000000E+00
  0.00000000E+00  0.00000000E+00  0.00000000E+00
  0.00000000E+00  0.00000000E+00  0.00000000E+00
  0.00000000E+00  0.00000000E+00  0.00000000E+00
  0.00000000E+00  0.00000000E+00  0.00000000E+00
  0.00000000E+00  0.00000000E+00  0.00000000E+00
  0.00000000E+00  0.00000000E+00  0.00000000E+00
  0.00000000E+00  0.00000000E+00  0.00000000E+00
  0.00000000E+00  0.00000000E+00  0.00000000E+00
  0.00000000E+00  0.00000000E+00  0.00000000E+00
  0.00000000E+00  0.00000000E+00  0.00000000E+00
  0.00000000E+00  0.00000000E+00  0.00000000E+00
  0.00000000E+00  0.00000000E+00  0.00000000E+00
  0.00000000E+00  0.00000000E+00  0.00000000E+00
  0.00000000E+00  0.00000000E+00  0.00000000E+00
  0.00000000E+00  0.00000000E+00  0.00000000E+00
  0.00000000E+00  0.00000000E+00  0.00000000E+00
  0.00000000E+00  0.00000000E+00  0.00000000E+00
  0.00000000E+00  0.00000000E+00  0.00000000E+00
  0.00000000E+00  0.00000000E+00  0.00000000E+00
  0.00000000E+00  0.00000000E+00  0.00000000E+00
  0.00000000E+00  0.00000000E+00  0.00000000E+00
  0.00000000E+00  0.00000000E+00  0.00000000E+00
  0.00000000E+00  0.00000000E+00  0.00000000E+00
  0.00000000E+00  0.00000000E+00  0.00000000E+00
  0.00000000E+00  0.00000000E+00  0.00000000E+00
  0.00000000E+00  0.00000000E+00  0.00000000E+00
  0.00000000E+00  0.00000000E+00  0.00000000E+00
  0.00000000E+00  0.00000000E+00  0.00000000E+00
  0.00000000E+00  0.00000000E+00  0.00000000E+00
  0.00000000E+00  0.00000000E+00  0.00000000E+00
  0.00000000E+00  0.00000000E+00  0.00000000E+00
  0.00000000E+00  0.00000000E+00  0.00000000E+00
  0.00000000E+00  0.00000000E+00  0.00000000E+00
  0.00000000E+00  0.00000000E+00  0.00000000E+00
  0.00000000E+00  0.00000000E+00  0.00000000E+00
  0.00000000E+00  0.00000000E+00  0.00000000E+00
  0.00000000E+00  0.00000000E+00  0.00000000E+00
  0.00000000E+00  0.00000000E+00  0.00000000E+00
  0.00000000E+00  0.00000000E+00  0.00000000E+00
  0.00000000E+00  0.00000000E+00  0.00000000E+00
  0.00000000E+00  0.00000000E+00  0.00000000E+00
  0.00000000E+00  0.00000000E+00  0.00000000E+00
  0.00000000E+00  0.00000000E+00  0.00000000E+00
  0.00000000E+00  0.00000000E+00  0.00000000E+00
  0.00000000E+00  0.00000000E+00  0.00000000E+00
  0.00000000E+00  0.00000000E+00  0.00000000E+00
  0.00000000E+00  0.00000000E+00  0.00000000E+00
  0.00000000E+00  0.00000000E+00  0.00000000E+00
  0.00000000E+00  0.00000000E+00  0.00000000E+00
  0.00000000E+00  0.00000000E+00  0.00000000E+00
  0.00000000E+00  0.00000000E+00  0.00000000E+00
  0.00000000E+00  0.00000000E+00  0.00000000E+00
  0.00000000E+00  0.00000000E+00  0.00000000E+00
  0.00000000E+00  0.00000000E+00  0.00000000E+00
  0.00000000E+00  0.00000000E+00  0.00000000E+00
  0.00000000E+00  0.00000000E+00  0.00000000E+00
  0.00000000E+00  0.00000000E+00  0.00000000E+00
  0.00000000E+00  0.00000000E+00  0.00000000E+00
  0.00000000E+00  0.00000000E+00  0.00000000E+00
  0.00000000E+00  0.00000000E+00  0.00000000E+00
  0.00000000E+00  0.00000000E+00  0.00000000E+00
  0.00000000E+00  0.00000000E+00  0.00000000E+00
  0.00000000E+00  0.00000000E+00  0.00000000E+00
  0.00000000E+00  0.00000000E+00  0.00000000E+00
  0.00000000E+00  0.00000000E+00  0.00000000E+00
  0.00000000E+00  0.00000000E+00  0.00000000E+00
  0.00000000E+00  0.00000000E+00  0.00000000E+00
  0.00000000E+00  0.00000000E+00  0.00000000E+00
  0.00000000E+00  0.00000000E+00  0.00000000E+00
