CONTCAR-qvdai                           
   1.00000000000000     
    14.4414740842709328   -0.0007474433111926    0.0000000000000000
    -0.0007474431454255   14.4414804789008961    0.0000000000000000
     0.0000000000000000    0.0000000000000000    9.7223100151145676
   Sn   Ti   O 
    53     1   108
Direct
  0.9998198079629752  0.0002522405705895 -0.0000000000000000
  0.1677297214122652  0.1656041374473526  0.1658434131871670
  0.4987229801702275  0.1653897020238864  0.1653175593526179
  0.6668475537426168  0.9997480135962741 -0.0000000000000000
  0.8333083551326423  0.1666175555719915  0.1666903794938251
  0.0006210865131048  0.3327110826039661 -0.0000000000000000
  0.1667159534401650  0.5000256515594061  0.1666898551088310
  0.3330811268029871  0.3335141551455187 -0.0000000000000000
  0.4999507616415313  0.4999748009523996  0.1666903357298424
  0.6663550753648725  0.3330219366802287 -0.0000000000000000
  0.8333338984758996  0.5000001463044441  0.1666454164433519
  0.0003115402991408  0.6669792984134698 -0.0000000000000000
  0.1679443022504268  0.8346110882292459  0.1653180567991818
  0.3335858816414122  0.6664862391924125 -0.0000000000000000
  0.4989376780905482  0.8343963470953503  0.1658437169862009
  0.6660454777172068  0.6672880725187847 -0.0000000000000000
  0.8333586318335706  0.8333828913922733  0.1666903046914030
  0.0002702735203479  0.9999321710460536  0.3332027871049530
  0.1672829446988423  0.1660510622547214  0.5000000000000000
  0.3333336820144410  0.0000000760636212  0.3310129987945251
  0.4998381266339668  0.1665048124062442  0.5000000000000000
  0.6663970093976153  0.0000681409712384  0.3332027649980927
  0.8333287670308493  0.1665579047210207  0.5000000000000000
  0.0002737384262065  0.3330609781364398  0.3332063796569483
  0.1667762134090049  0.5000055737359332  0.5000000000000000
  0.3334013277580836  0.3330637185910581  0.3332027277072965
  0.4998909053952935  0.4999951118521508  0.5000000000000000
  0.6662025160247618  0.3328692818306118  0.3332417945112422
  0.8333337140118431  0.5000003121992052  0.5000000000000000
  0.0004650333838603  0.6671313329061368  0.3332422439437050
  0.1668292080664041  0.8334958322052169  0.5000000000000000
  0.3332653786004501  0.6669371055001798  0.3332044629022673
  0.4993846033921990  0.8339492235223623  0.5000000000000000
  0.6663938155421885  0.6669396843154420  0.3332064161421525
  0.8333385565172762  0.8334424580000893  0.5000000000000000
  0.0002702735203479  0.9999321710460536  0.6667972128950470
  0.1677297214122652  0.1656041374473526  0.8341565868128331
  0.3333336820144410  0.0000000760636212  0.6689870012054749
  0.4987229801702275  0.1653897020238864  0.8346824406473751
  0.6663970093976153  0.0000681409712384  0.6667972350019074
  0.8333083551326423  0.1666175555719915  0.8333096205061749
  0.0002737384262065  0.3330609781364398  0.6667936203430518
  0.1667159534401650  0.5000256515594061  0.8333101448911689
  0.3334013277580836  0.3330637185910581  0.6667972722927036
  0.4999507616415313  0.4999748009523996  0.8333096642701575
  0.6662025160247618  0.3328692818306118  0.6667582054887577
  0.8333338984758996  0.5000001463044441  0.8333545835566480
  0.0004650333838603  0.6671313329061368  0.6667577560562949
  0.1679443022504268  0.8346110882292459  0.8346819432008182
  0.3332653786004501  0.6669371055001798  0.6667955370977328
  0.4989376780905482  0.8343963470953503  0.8341562830137992
  0.6663938155421885  0.6669396843154420  0.6667935838578476
  0.8333586318335706  0.8333828913922733  0.8333096953085969
  0.3333337645345082  0.0000003863308251 -0.0000000000000000
  0.1010530997202143  0.1029012249755434 -0.0000000000000000
  0.2304324459908818  0.2322801781673544 -0.0000000000000000
  0.0650879622003347  0.2682460665250898  0.1670979178632879
  0.2707533056575884  0.0625807241992333  0.1582692998450487
  0.4324025672222044  0.0990692773474885 -0.0000000000000000
  0.5638258149782946  0.2304924690761970 -0.0000000000000000
  0.3974141933978387  0.2683007364150090  0.1661897431467120
  0.6016342523887506  0.0640806906636470  0.1661897034843017
  0.7688103061279274  0.1020133559470647 -0.0000000000000000
  0.8979245734211485  0.2310103340258019 -0.0000000000000000
  0.7309115449003161  0.2685029582407657  0.1665886014631561
  0.9353352539753252  0.0644341678150075  0.1669579855152549
  0.1023221956181450  0.4354084049915362 -0.0000000000000000
  0.2313212903767696  0.5645240985546967 -0.0000000000000000
  0.0648308022805830  0.6024228308975024  0.1665882479916782
  0.2688994875859274  0.3979983753022360  0.1669581916276016
  0.4353464480783340  0.4354765785710081 -0.0000000000000000
  0.5643442927678474  0.5645914136489889 -0.0000000000000000
  0.3977676367258729  0.6020019256040363  0.1669579720047893
  0.6018362798602360  0.3975779244547442  0.1665886360695005
  0.7686752901950390  0.4353420057375080 -0.0000000000000000
  0.8979917332709940  0.5646585748461087 -0.0000000000000000
  0.7309708547836191  0.6023626717642205  0.1665106486716306
  0.9356963044387019  0.3976372828617638  0.1665108661121531
  0.1028414819741167  0.7695083423074104 -0.0000000000000000
  0.2342619419933746  0.9009346105015799 -0.0000000000000000
  0.0650326996449930  0.9359197224043471  0.1661898102053977
  0.2692532274519593  0.7316999027460493  0.1661890023220872
  0.4362347111932260  0.7677199866387202 -0.0000000000000000
  0.5656140238827984  0.8970991122007951 -0.0000000000000000
  0.3959141444970739  0.9374196872712121  0.1582690544562869
  0.6015792483604399  0.7317543337584427  0.1670973661269886
  0.7687421963495016  0.7689894610929234 -0.0000000000000000
  0.8978570216337165  0.8979872756978726 -0.0000000000000000
  0.7313318052781590  0.9355662337166928  0.1669582005441598
  0.9357555146762733  0.7314976713608708  0.1665886380975316
  0.1036056981332109  0.1009220183195566  0.3327472616909328
  0.2324117934865072  0.2297276052208062  0.3327472045145110
  0.0650663935846473  0.2682674094570281  0.5000000000000000
  0.2692564135904254  0.0640772782870167  0.5000000000000000
  0.4348635432896236  0.1015301033996754  0.3327009756457198
  0.5637879126670283  0.2304542996547992  0.3323997363911442
  0.3978060608206567  0.2683711854723548  0.5000000000000000
  0.6017048661018769  0.0644726973438315  0.5000000000000000
  0.7686697125288326  0.1020177870376175  0.3334275029628440
  0.8978246264601628  0.2310816599868094  0.3334209819143825
  0.7306498948190544  0.2683047013316460  0.5000000000000000
  0.9361517043346683  0.0648462765996203  0.5000000000000000
  0.1022518252607479  0.4355096074832696  0.3334211092953469
  0.2313162581459663  0.5646645178161200  0.3334271548646679
  0.0650289732026913  0.6026842521908599  0.5000000000000000
  0.2684872687897877  0.3971817987202340  0.5000000000000000
  0.4353508143738198  0.4353360002708507  0.3334274633288838
  0.5644152156361134  0.5644908833504365  0.3334210945878299
  0.3981798390466440  0.6028185842629685  0.5000000000000000
  0.6016380890888818  0.3973162077641014  0.5000000000000000
  0.7686341333457275  0.4353006845999726  0.3333641604861277
  0.8980331987689144  0.5646998150366688  0.3333642302977117
  0.7309636529901866  0.6023700403853496  0.5000000000000000
  0.9357036254150202  0.3976301449221141  0.5000000000000000
  0.1028794703016901  0.7695461083482117  0.3323994926509055
  0.2318038187290621  0.8984705947787498  0.3327006260752707
  0.0649621592413602  0.9355279210302565  0.5000000000000000
  0.2688613402952735  0.7316292750812387  0.5000000000000000
  0.4342554677198919  0.7702727620652637  0.3327473255686466
  0.5630613891390340  0.8990785204266429  0.3327471979037563
  0.3974107667039499  0.9359231985270489  0.5000000000000000
  0.6016009884177400  0.7317326483114677  0.5000000000000000
  0.7688426949116129  0.7689185171896579  0.3334210332312355
  0.8979975986583930  0.8979828734208509  0.3334274337646856
  0.7305153209183513  0.9351540702715623  0.5000000000000000
  0.9360173605585779  0.7316957410758299  0.5000000000000000
  0.1036056981332109  0.1009220183195566  0.6672527383090673
  0.2324117934865072  0.2297276052208062  0.6672527954854891
  0.0650879622003347  0.2682460665250898  0.8329020821367120
  0.2707533056575884  0.0625807241992333  0.8417307001549513
  0.4348635432896236  0.1015301033996754  0.6672990243542802
  0.5637879126670283  0.2304542996547992  0.6676002636088558
  0.3974141933978387  0.2683007364150090  0.8338102568532880
  0.6016342523887506  0.0640806906636470  0.8338102965156983
  0.7686697125288326  0.1020177870376175  0.6665724970371560
  0.8978246264601628  0.2310816599868094  0.6665790180856176
  0.7309115449003161  0.2685029582407657  0.8334113985368440
  0.9353352539753252  0.0644341678150075  0.8330420144847450
  0.1022518252607479  0.4355096074832696  0.6665788907046531
  0.2313162581459663  0.5646645178161200  0.6665728451353321
  0.0648308022805830  0.6024228308975024  0.8334117520083218
  0.2688994875859274  0.3979983753022360  0.8330418083723983
  0.4353508143738198  0.4353360002708507  0.6665725366711162
  0.5644152156361134  0.5644908833504365  0.6665789054121701
  0.3977676367258729  0.6020019256040363  0.8330420279952107
  0.6018362798602360  0.3975779244547442  0.8334113639304995
  0.7686341333457275  0.4353006845999726  0.6666358395138724
  0.8980331987689144  0.5646998150366688  0.6666357697022883
  0.7309708547836191  0.6023626717642205  0.8334893513283693
  0.9356963044387019  0.3976372828617638  0.8334891338878468
  0.1028794703016901  0.7695461083482117  0.6676005073490945
  0.2318038187290621  0.8984705947787498  0.6672993739247293
  0.0650326996449930  0.9359197224043471  0.8338101897946023
  0.2692532274519593  0.7316999027460493  0.8338109976779128
  0.4342554677198919  0.7702727620652637  0.6672526744313535
  0.5630613891390340  0.8990785204266429  0.6672528020962437
  0.3959141444970739  0.9374196872712121  0.8417309455437131
  0.6015792483604399  0.7317543337584427  0.8329026338730113
  0.7688426949116129  0.7689185171896579  0.6665789667687646
  0.8979975986583930  0.8979828734208509  0.6665725662353215
  0.7313318052781590  0.9355662337166928  0.8330417994558401
  0.9357555146762733  0.7314976713608708  0.8334113619024685
 
  0.00000000E+00  0.00000000E+00  0.00000000E+00
  0.00000000E+00  0.00000000E+00  0.00000000E+00
  0.00000000E+00  0.00000000E+00  0.00000000E+00
  0.00000000E+00  0.00000000E+00  0.00000000E+00
  0.00000000E+00  0.00000000E+00  0.00000000E+00
  0.00000000E+00  0.00000000E+00  0.00000000E+00
  0.00000000E+00  0.00000000E+00  0.00000000E+00
  0.00000000E+00  0.00000000E+00  0.00000000E+00
  0.00000000E+00  0.00000000E+00  0.00000000E+00
  0.00000000E+00  0.00000000E+00  0.00000000E+00
  0.00000000E+00  0.00000000E+00  0.00000000E+00
  0.00000000E+00  0.00000000E+00  0.00000000E+00
  0.00000000E+00  0.00000000E+00  0.00000000E+00
  0.00000000E+00  0.00000000E+00  0.00000000E+00
  0.00000000E+00  0.00000000E+00  0.00000000E+00
  0.00000000E+00  0.00000000E+00  0.00000000E+00
  0.00000000E+00  0.00000000E+00  0.00000000E+00
  0.00000000E+00  0.00000000E+00  0.00000000E+00
  0.00000000E+00  0.00000000E+00  0.00000000E+00
  0.00000000E+00  0.00000000E+00  0.00000000E+00
  0.00000000E+00  0.00000000E+00  0.00000000E+00
  0.00000000E+00  0.00000000E+00  0.00000000E+00
  0.00000000E+00  0.00000000E+00  0.00000000E+00
  0.00000000E+00  0.00000000E+00  0.00000000E+00
  0.00000000E+00  0.00000000E+00  0.00000000E+00
  0.00000000E+00  0.00000000E+00  0.00000000E+00
  0.00000000E+00  0.00000000E+00  0.00000000E+00
  0.00000000E+00  0.00000000E+00  0.00000000E+00
  0.00000000E+00  0.00000000E+00  0.00000000E+00
  0.00000000E+00  0.00000000E+00  0.00000000E+00
  0.00000000E+00  0.00000000E+00  0.00000000E+00
  0.00000000E+00  0.00000000E+00  0.00000000E+00
  0.00000000E+00  0.00000000E+00  0.00000000E+00
  0.00000000E+00  0.00000000E+00  0.00000000E+00
  0.00000000E+00  0.00000000E+00  0.00000000E+00
  0.00000000E+00  0.00000000E+00  0.00000000E+00
  0.00000000E+00  0.00000000E+00  0.00000000E+00
  0.00000000E+00  0.00000000E+00  0.00000000E+00
  0.00000000E+00  0.00000000E+00  0.00000000E+00
  0.00000000E+00  0.00000000E+00  0.00000000E+00
  0.00000000E+00  0.00000000E+00  0.00000000E+00
  0.00000000E+00  0.00000000E+00  0.00000000E+00
  0.00000000E+00  0.00000000E+00  0.00000000E+00
  0.00000000E+00  0.00000000E+00  0.00000000E+00
  0.00000000E+00  0.00000000E+00  0.00000000E+00
  0.00000000E+00  0.00000000E+00  0.00000000E+00
  0.00000000E+00  0.00000000E+00  0.00000000E+00
  0.00000000E+00  0.00000000E+00  0.00000000E+00
  0.00000000E+00  0.00000000E+00  0.00000000E+00
  0.00000000E+00  0.00000000E+00  0.00000000E+00
  0.00000000E+00  0.00000000E+00  0.00000000E+00
  0.00000000E+00  0.00000000E+00  0.00000000E+00
  0.00000000E+00  0.00000000E+00  0.00000000E+00
  0.00000000E+00  0.00000000E+00  0.00000000E+00
  0.00000000E+00  0.00000000E+00  0.00000000E+00
  0.00000000E+00  0.00000000E+00  0.00000000E+00
  0.00000000E+00  0.00000000E+00  0.00000000E+00
  0.00000000E+00  0.00000000E+00  0.00000000E+00
  0.00000000E+00  0.00000000E+00  0.00000000E+00
  0.00000000E+00  0.00000000E+00  0.00000000E+00
  0.00000000E+00  0.00000000E+00  0.00000000E+00
  0.00000000E+00  0.00000000E+00  0.00000000E+00
  0.00000000E+00  0.00000000E+00  0.00000000E+00
  0.00000000E+00  0.00000000E+00  0.00000000E+00
  0.00000000E+00  0.00000000E+00  0.00000000E+00
  0.00000000E+00  0.00000000E+00  0.00000000E+00
  0.00000000E+00  0.00000000E+00  0.00000000E+00
  0.00000000E+00  0.00000000E+00  0.00000000E+00
  0.00000000E+00  0.00000000E+00  0.00000000E+00
  0.00000000E+00  0.00000000E+00  0.00000000E+00
  0.00000000E+00  0.00000000E+00  0.00000000E+00
  0.00000000E+00  0.00000000E+00  0.00000000E+00
  0.00000000E+00  0.00000000E+00  0.00000000E+00
  0.00000000E+00  0.00000000E+00  0.00000000E+00
  0.00000000E+00  0.00000000E+00  0.00000000E+00
  0.00000000E+00  0.00000000E+00  0.00000000E+00
  0.00000000E+00  0.00000000E+00  0.00000000E+00
  0.00000000E+00  0.00000000E+00  0.00000000E+00
  0.00000000E+00  0.00000000E+00  0.00000000E+00
  0.00000000E+00  0.00000000E+00  0.00000000E+00
  0.00000000E+00  0.00000000E+00  0.00000000E+00
  0.00000000E+00  0.00000000E+00  0.00000000E+00
  0.00000000E+00  0.00000000E+00  0.00000000E+00
  0.00000000E+00  0.00000000E+00  0.00000000E+00
  0.00000000E+00  0.00000000E+00  0.00000000E+00
  0.00000000E+00  0.00000000E+00  0.00000000E+00
  0.00000000E+00  0.00000000E+00  0.00000000E+00
  0.00000000E+00  0.00000000E+00  0.00000000E+00
  0.00000000E+00  0.00000000E+00  0.00000000E+00
  0.00000000E+00  0.00000000E+00  0.00000000E+00
  0.00000000E+00  0.00000000E+00  0.00000000E+00
  0.00000000E+00  0.00000000E+00  0.00000000E+00
  0.00000000E+00  0.00000000E+00  0.00000000E+00
  0.00000000E+00  0.00000000E+00  0.00000000E+00
  0.00000000E+00  0.00000000E+00  0.00000000E+00
  0.00000000E+00  0.00000000E+00  0.00000000E+00
  0.00000000E+00  0.00000000E+00  0.00000000E+00
  0.00000000E+00  0.00000000E+00  0.00000000E+00
  0.00000000E+00  0.00000000E+00  0.00000000E+00
  0.00000000E+00  0.00000000E+00  0.00000000E+00
  0.00000000E+00  0.00000000E+00  0.00000000E+00
  0.00000000E+00  0.00000000E+00  0.00000000E+00
  0.00000000E+00  0.00000000E+00  0.00000000E+00
  0.00000000E+00  0.00000000E+00  0.00000000E+00
  0.00000000E+00  0.00000000E+00  0.00000000E+00
  0.00000000E+00  0.00000000E+00  0.00000000E+00
  0.00000000E+00  0.00000000E+00  0.00000000E+00
  0.00000000E+00  0.00000000E+00  0.00000000E+00
  0.00000000E+00  0.00000000E+00  0.00000000E+00
  0.00000000E+00  0.00000000E+00  0.00000000E+00
  0.00000000E+00  0.00000000E+00  0.00000000E+00
  0.00000000E+00  0.00000000E+00  0.00000000E+00
  0.00000000E+00  0.00000000E+00  0.00000000E+00
  0.00000000E+00  0.00000000E+00  0.00000000E+00
  0.00000000E+00  0.00000000E+00  0.00000000E+00
  0.00000000E+00  0.00000000E+00  0.00000000E+00
  0.00000000E+00  0.00000000E+00  0.00000000E+00
  0.00000000E+00  0.00000000E+00  0.00000000E+00
  0.00000000E+00  0.00000000E+00  0.00000000E+00
  0.00000000E+00  0.00000000E+00  0.00000000E+00
  0.00000000E+00  0.00000000E+00  0.00000000E+00
  0.00000000E+00  0.00000000E+00  0.00000000E+00
  0.00000000E+00  0.00000000E+00  0.00000000E+00
  0.00000000E+00  0.00000000E+00  0.00000000E+00
  0.00000000E+00  0.00000000E+00  0.00000000E+00
  0.00000000E+00  0.00000000E+00  0.00000000E+00
  0.00000000E+00  0.00000000E+00  0.00000000E+00
  0.00000000E+00  0.00000000E+00  0.00000000E+00
  0.00000000E+00  0.00000000E+00  0.00000000E+00
  0.00000000E+00  0.00000000E+00  0.00000000E+00
  0.00000000E+00  0.00000000E+00  0.00000000E+00
  0.00000000E+00  0.00000000E+00  0.00000000E+00
  0.00000000E+00  0.00000000E+00  0.00000000E+00
  0.00000000E+00  0.00000000E+00  0.00000000E+00
  0.00000000E+00  0.00000000E+00  0.00000000E+00
  0.00000000E+00  0.00000000E+00  0.00000000E+00
  0.00000000E+00  0.00000000E+00  0.00000000E+00
  0.00000000E+00  0.00000000E+00  0.00000000E+00
  0.00000000E+00  0.00000000E+00  0.00000000E+00
  0.00000000E+00  0.00000000E+00  0.00000000E+00
  0.00000000E+00  0.00000000E+00  0.00000000E+00
  0.00000000E+00  0.00000000E+00  0.00000000E+00
  0.00000000E+00  0.00000000E+00  0.00000000E+00
  0.00000000E+00  0.00000000E+00  0.00000000E+00
  0.00000000E+00  0.00000000E+00  0.00000000E+00
  0.00000000E+00  0.00000000E+00  0.00000000E+00
  0.00000000E+00  0.00000000E+00  0.00000000E+00
  0.00000000E+00  0.00000000E+00  0.00000000E+00
  0.00000000E+00  0.00000000E+00  0.00000000E+00
  0.00000000E+00  0.00000000E+00  0.00000000E+00
  0.00000000E+00  0.00000000E+00  0.00000000E+00
  0.00000000E+00  0.00000000E+00  0.00000000E+00
  0.00000000E+00  0.00000000E+00  0.00000000E+00
  0.00000000E+00  0.00000000E+00  0.00000000E+00
  0.00000000E+00  0.00000000E+00  0.00000000E+00
  0.00000000E+00  0.00000000E+00  0.00000000E+00
  0.00000000E+00  0.00000000E+00  0.00000000E+00
  0.00000000E+00  0.00000000E+00  0.00000000E+00
  0.00000000E+00  0.00000000E+00  0.00000000E+00
  0.00000000E+00  0.00000000E+00  0.00000000E+00
  0.00000000E+00  0.00000000E+00  0.00000000E+00
  0.00000000E+00  0.00000000E+00  0.00000000E+00
