CONTCAR-qvdai                           
   1.00000000000000     
    14.4414740842709328   -0.0007474433111926    0.0000000000000000
    -0.0007474431454255   14.4414804789008961    0.0000000000000000
     0.0000000000000000    0.0000000000000000    9.7223100151145676
   Sn   Ti   O 
    53     1   108
Direct
  0.0102445156963594  0.9973227680982339  0.9840343434775671
  0.1602935655969615  0.1747217652081125  0.1746059250591631
  0.4940699914177201  0.1800101428821642  0.1742410411622348
  0.6647645902315691  0.9985825475191401  0.9898733281325632
  0.8412130501108976  0.1580079269384277  0.1685553003915699
  0.9949526071037451  0.3389969031204589  0.0010815790738410
  0.1618039695504033  0.4916945789673745  0.1574170641968947
  0.3342516113644791  0.3418017429088764  0.0105582648382427
  0.5105934283326126  0.5024037900901316  0.1731233938301091
  0.6613868038994963  0.3260115669763883  0.9971917886753374
  0.8194067163094494  0.4900995007760985  0.1612795167320189
  0.9905284843896016  0.6708952668220687  0.0066470165218996
  0.1627313443064716  0.8372992666168861  0.1554284285836013
  0.3363599510848501  0.6738888609731414  0.0004285073220806
  0.5034809401262111  0.8468021940553622  0.1763933298682069
  0.6561471683343170  0.6817368221572622  0.0045461266251563
  0.8369447981343451  0.8401186383431944  0.1708485461741957
  0.9938794090361258  0.9860013011234020  0.3332267848072395
  0.1633834409549134  0.1684119442798894  0.5010258705879328
  0.3352654792559220  0.0106235933986178  0.3287758594389704
  0.5054925029065127  0.1818140882684955  0.5061309391772414
  0.6719805655501591  0.9946253945206014  0.3244273036925348
  0.8318358115437396  0.1488038825562360  0.5077575812927029
  0.9919809177293192  0.3216303941121053  0.3448950079789003
  0.1598233827629886  0.4903621884887181  0.4999919224531918
  0.3291593825164997  0.3444022289331183  0.3421675627999965
  0.4979042174602714  0.5019268293931309  0.5085713093801285
  0.6841107794115987  0.3276752567589000  0.3345044952750942
  0.8276335103936171  0.5012949890403346  0.4935816511405111
  0.0028234110755172  0.6719806409176091  0.3369129215853532
  0.1850610755969675  0.8386549312784715  0.4893498408014006
  0.3418815169988689  0.6673003926045504  0.3320297972409776
  0.5070747735404249  0.8404365986986513  0.5003667196430395
  0.6662010740959322  0.6640792284986977  0.3289494547933087
  0.8285869060483815  0.8117940437219050  0.4958073878969173
  0.0131440586511987  0.0006192665762318  0.6618497199328310
  0.1723308767513106  0.1650810207992600  0.8435983585277291
  0.3379990800830802  0.0039579534840362  0.6539687892459787
  0.4825092869705241  0.1511934412713946  0.8395194814560061
  0.6684951382186864  0.9964364755805822  0.6533428805206096
  0.8337872598578543  0.1666403637505620  0.8266071808049896
  0.9897906667461238  0.3251374016204193  0.6860752067190196
  0.1743234642495231  0.4941680301790967  0.8273439821347107
  0.3315030548675065  0.3257639244647498  0.6700317943552583
  0.4932630943801415  0.5013104602406117  0.8357860649367589
  0.6646924138755781  0.3404706331546768  0.6692315853650637
  0.8312463724468478  0.5121937047260193  0.8274644973253120
  0.0152242599996454  0.6595516708066423  0.6614799337525519
  0.1763265519552517  0.8317065720165749  0.8265053284190682
  0.3398971160490830  0.6536561315495926  0.6641828838080632
  0.4902465329494180  0.8395140396818095  0.8311523993209523
  0.6664180323181325  0.6624469253754940  0.6666441818024262
  0.8325041687356347  0.8420544262791898  0.8343802345337599
  0.3324885905479599  0.0019530218278685  0.9999338858332537
  0.1054182388603975  0.1057962998508888  0.0125425080936727
  0.2368891399285403  0.2370195600093099  0.0145834964215759
  0.0604325002713431  0.2727161325809700  0.1757057647997813
  0.2675322716731108  0.0693867827882670  0.1642566290607878
  0.4321252159664887  0.0957814549221855  0.0231866971257714
  0.5620692832515000  0.2267957431583013  0.9972823872700090
  0.3953373437921183  0.2872026696413452  0.1741022774333522
  0.6105654808737918  0.0637470561267807  0.1624073630047307
  0.7637096120891630  0.1122351090178215  0.9957112298569966
  0.9106055728880397  0.2216299472712511  0.9766342333698214
  0.7289923267781995  0.2589171679429604  0.1641379277420393
  0.9367652641565254  0.0597226485565529  0.1681518671616049
  0.1107535249224750  0.4284661519626621  0.9813677068652386
  0.2335721408329899  0.5532819835841846  0.9886122738346323
  0.0637567617392516  0.6035919948142291  0.1818834643371258
  0.2635223011972909  0.3956969675272581  0.1745809943347993
  0.4342220385573780  0.4453054394593900  0.0094274924561841
  0.5728352774404779  0.5540806912902623  0.9914688830039643
  0.4109269415884240  0.6208873528239504  0.1641559158560730
  0.6185900688993433  0.4054542468454514  0.1718597537894691
  0.7527976390728162  0.4392168004247359  0.9813698550049483
  0.8895384258414605  0.5659733446646753  0.9999915026812601
  0.7203344531802487  0.6089690801967690  0.1630985575962997
  0.9261353052235086  0.3893284896217754  0.1672246163114429
  0.0967014360066401  0.7785557508363330  0.9873979529461258
  0.2413508125816440  0.8944483302855218  0.9917275031183246
  0.0652753154516591  0.9388213927964973  0.1625005958738582
  0.2525055710328535  0.7350402426899152  0.1568313832847137
  0.4388164257509625  0.7715983574051505  0.9956555946807513
  0.5514602191715831  0.9043563499665188  0.9966756931704994
  0.3930774796701114  0.9447015221690586  0.1555012427345615
  0.6002144780884083  0.7346542559016687  0.1826580440264098
  0.7642457805663418  0.7880075888353101  0.9870561974261767
  0.9224917206281812  0.8748363930486153  0.0140872554966743
  0.7375823290939792  0.9314888813960497  0.1479847028375848
  0.9149210426527208  0.7155096641555262  0.1843369733409536
  0.1023760082547345  0.0892777821364570  0.3380321585534323
  0.2148890215193522  0.2506826082850535  0.3475768712419709
  0.0610283318774737  0.2641884279704566  0.5155148832161149
  0.2666169866010642  0.0620474382506669  0.4964025501401774
  0.4306528532823141  0.1112373532454818  0.3418498723718333
  0.5677818580139425  0.2234407220216969  0.3275663452554939
  0.4100074411552065  0.2809721429646490  0.5027314525994112
  0.5929977889461518  0.0591692466863798  0.4755391220975231
  0.7724532955431278  0.1008828788871189  0.3314421885759979
  0.8957937066148626  0.2267825140322598  0.3410597570917422
  0.7501809639516925  0.2781982156830655  0.4875018311005329
  0.9382435033245748  0.0542756286380055  0.5194229591136107
  0.0922250360477448  0.4365002465349495  0.3289024828367456
  0.2349467383692839  0.5657548246921432  0.3367058396217494
  0.0483645428863280  0.5849178984193298  0.4876125333314023
  0.2616227066707305  0.3970989309360949  0.5247987583494498
  0.4271827399200454  0.4430231602427923  0.3383659070084592
  0.5748361936728215  0.5614493659642569  0.3407655398050173
  0.4130413366481193  0.6099849600364540  0.4999784187677071
  0.6132953631982146  0.3901460951186387  0.4986324623330539
  0.7652875224183070  0.4406180801442905  0.3309774735082157
  0.8852549010986857  0.5645845596446510  0.3290712782426607
  0.7366732850306622  0.6130579605960047  0.5074090066475434
  0.9221317864425003  0.3869185570498696  0.5089259661738316
  0.1059736481951344  0.7703361591298159  0.3345377015964377
  0.2365520274045277  0.9116132777721383  0.3165460726546334
  0.0590414276273216  0.9227944951819756  0.4935694016997058
  0.2757472563082410  0.7258046741515345  0.4993982402518200
  0.4276035611874292  0.7784981562965061  0.3333732921415498
  0.5777540265352907  0.8951693939463099  0.3385295877578056
  0.4068288556578881  0.9497214254545783  0.4771412147710436
  0.6061608725641867  0.7270825516704127  0.4990706236178218
  0.7659003408476867  0.7670715556022962  0.3316050775227740
  0.8871486817092852  0.8958824486487020  0.3500216142457987
  0.7316515683903233  0.9195283419706310  0.4981913770524019
  0.9369872675746669  0.7284329187188823  0.4881609228494080
  0.1096276176335191  0.0989358186770119  0.6810576158489200
  0.2295885820108242  0.2274800940064075  0.6681356868063970
  0.0577685985682033  0.2579284546381035  0.8541884863775705
  0.2753456068826867  0.0657789462699383  0.8342338711872710
  0.4242956815419480  0.1219520920571684  0.6637854656657395
  0.5769323211549711  0.2231721670421626  0.6645138673469844
  0.3862651087045160  0.2559326447515336  0.8471467846254862
  0.6102439742314422  0.0713778713133770  0.8353535153123158
  0.7653517026439436  0.0902157959314080  0.6573024950873192
  0.8884826502885133  0.2310816383309119  0.6673407382886430
  0.7265408536447654  0.2680564601238454  0.8109387132534419
  0.9285002312074949  0.0496577598358432  0.8381537783686742
  0.0855803983375373  0.4364140534437828  0.6597782739058193
  0.2313079808517189  0.5609112493648623  0.6613417728407595
  0.0825273710231268  0.6077359423071489  0.8505939538720125
  0.2718130884078479  0.3926857653024712  0.8255844917797156
  0.4234309396005042  0.4297720809646559  0.6768322038763398
  0.5601307906510465  0.5618173764082219  0.6687085459761446
  0.3914094601987081  0.5913013405698255  0.8310681307891057
  0.5965969659831381  0.3966458237056829  0.8336439812657052
  0.7481794958144669  0.4615977666177539  0.6730915646444949
  0.9113891409933048  0.5625548255481306  0.6600251612082613
  0.7278273003394231  0.6114912939516092  0.8403050323587545
  0.9277215777328641  0.3984744232193563  0.8387000615635863
  0.1098915842838093  0.7793607839273214  0.6588055092705877
  0.2334221434730779  0.9023443895289905  0.6683181065405258
  0.0624554763793435  0.9285508133114828  0.8286277102532025
  0.2631365629488471  0.7152339081900256  0.8346719147935491
  0.4223118219707246  0.7808142836693205  0.6760887620192580
  0.5689363819593104  0.8979367196061918  0.6792098212705386
  0.4188447546563694  0.9616750833873231  0.8107892952211527
  0.6025543721825767  0.7365172166635663  0.8326308898114930
  0.7561436676909168  0.7809731940288055  0.6763944315335426
  0.9055065664370602  0.8980842359524519  0.6781865890572470
  0.7338788841046533  0.9419339874062377  0.8403993708885877
  0.9310969501241444  0.7211819524239735  0.8364932457550420
 
 -0.18163240E-02  0.21830135E-02 -0.12956237E-02
 -0.14301455E-02  0.49765441E-02 -0.66218843E-03
  0.17545541E-03 -0.99123763E-03 -0.45396476E-02
  0.70167830E-03  0.83524172E-03 -0.14676398E-02
 -0.18560385E-02 -0.15159399E-02  0.23252900E-02
 -0.38561866E-03  0.16432276E-03  0.16978669E-02
 -0.34769757E-03 -0.11936813E-03 -0.20402577E-02
 -0.49107785E-03  0.22351982E-02  0.32793761E-03
  0.23356070E-02 -0.64372932E-03 -0.49475496E-02
  0.11821822E-02  0.20265226E-02  0.26841051E-03
  0.15056411E-03  0.39958955E-02  0.10257390E-02
 -0.34930289E-02  0.15610166E-03 -0.10917218E-02
  0.38505302E-02 -0.27840791E-02 -0.39943614E-02
 -0.28948803E-02  0.16017786E-02  0.36998003E-02
 -0.33825962E-02 -0.10732104E-02 -0.32675363E-02
  0.20910708E-02  0.10478280E-03  0.23588063E-03
  0.21061551E-02 -0.15487502E-02  0.67638287E-03
  0.42502833E-02  0.18154302E-02 -0.59496263E-03
  0.32589765E-02  0.31283262E-02  0.15957442E-02
 -0.27420968E-02  0.30125538E-02 -0.19146661E-02
 -0.22587088E-02 -0.73646790E-03  0.31151225E-03
  0.26243342E-02 -0.29014034E-02 -0.13993458E-03
 -0.11630541E-02 -0.20298661E-02  0.10492836E-02
 -0.19376988E-03 -0.21474213E-02 -0.69116770E-03
  0.32518872E-02  0.31527838E-02  0.36154978E-05
 -0.11911912E-03  0.11354747E-02 -0.26878696E-03
  0.38113786E-04  0.11685805E-02  0.71284058E-03
 -0.13708687E-02 -0.38257042E-02  0.24231972E-02
 -0.40600259E-02  0.11199383E-03  0.30497300E-02
  0.48380168E-02 -0.27186197E-02 -0.92682652E-03
 -0.10500546E-02 -0.27957034E-02 -0.21471346E-02
 -0.65086022E-02  0.25541738E-02 -0.23739323E-02
 -0.42371119E-02 -0.27113561E-02 -0.16366158E-03
  0.59270553E-03 -0.39431944E-02  0.53302408E-03
  0.17239996E-02 -0.51887683E-02  0.28706677E-02
 -0.11677789E-02  0.29414184E-02 -0.37219327E-02
  0.23313833E-03  0.22731260E-02 -0.57169858E-03
 -0.56395786E-02 -0.27967892E-02  0.15281970E-02
  0.54327735E-02 -0.31270280E-02 -0.19352225E-02
 -0.52770065E-03 -0.44128236E-02  0.20376019E-02
  0.73710153E-03  0.31350910E-02  0.18537165E-02
  0.10326458E-02  0.10417654E-02 -0.23200587E-02
 -0.64436199E-02  0.20463108E-02  0.33446092E-03
  0.98485838E-02 -0.33632966E-02 -0.28101115E-03
 -0.26877719E-02  0.32567993E-02  0.22577527E-02
 -0.16393149E-02 -0.21012665E-02 -0.41719805E-03
  0.18096151E-02  0.48204192E-02  0.12498430E-02
 -0.13784653E-02 -0.18954068E-02 -0.33850769E-02
  0.54378490E-02 -0.31122852E-02  0.15539000E-02
 -0.32080111E-02  0.97355254E-03 -0.24824105E-02
  0.41254367E-02 -0.20995008E-02 -0.20177564E-02
 -0.34872718E-02  0.16385003E-02 -0.20119606E-02
  0.23916428E-02  0.96992071E-03 -0.82216559E-03
  0.62012273E-02  0.71040221E-03  0.49910597E-02
 -0.13023781E-01 -0.14155282E-02 -0.14777842E-01
  0.72248803E-02 -0.11281324E-01  0.71884358E-02
  0.11459561E-01  0.53346546E-02  0.22738947E-02
 -0.47314291E-02 -0.77945964E-02  0.37056838E-02
 -0.28636982E-02  0.32057763E-03  0.50679541E-02
  0.53465547E-03  0.15460452E-02  0.39501390E-02
 -0.13327188E-01  0.39740381E-02  0.49915952E-02
  0.11228299E-01 -0.11558637E-01  0.24290982E-03
  0.10094971E-01  0.52495261E-02 -0.21741447E-03
 -0.63528317E-02 -0.38232123E-02  0.73398592E-02
 -0.20870338E-02 -0.67783375E-02  0.11190216E-01
  0.12632871E-02 -0.19690121E-02  0.13766219E-02
 -0.43223576E-03  0.87202356E-03  0.11623600E-01
 -0.11492774E-01  0.23471271E-02  0.22767416E-02
  0.77219601E-02  0.64162106E-02 -0.48036856E-02
  0.65174825E-02  0.94056460E-02  0.42521727E-02
 -0.59629100E-02  0.64185995E-02  0.56011383E-02
  0.59348080E-02  0.13574439E-02 -0.12696670E-02
 -0.10323156E-02 -0.75439902E-02  0.44006712E-02
 -0.64741275E-02  0.74668615E-02 -0.90710397E-03
 -0.10236357E-01 -0.51474511E-02 -0.52228214E-02
 -0.10443610E-01 -0.22155296E-02  0.76151504E-02
  0.64788104E-03  0.64189466E-02  0.21948767E-02
 -0.38625221E-02  0.28895513E-02  0.96659009E-02
 -0.40871599E-02 -0.21435263E-02  0.88309280E-02
 -0.20675776E-02 -0.18195259E-02  0.12116709E-01
  0.21201524E-02  0.71530862E-02  0.31760040E-02
  0.59823199E-02 -0.91023889E-02 -0.10185673E-02
 -0.17140395E-01 -0.52356544E-03 -0.48035305E-02
  0.64206139E-02 -0.32962388E-02 -0.20988187E-03
  0.18641819E-02 -0.23398583E-02 -0.13093740E-01
 -0.88714586E-02 -0.18075311E-02  0.46861532E-02
 -0.30656022E-05  0.12118434E-01 -0.14678342E-02
  0.19949331E-03  0.10679202E-03  0.64086657E-02
 -0.11209820E-01  0.65317486E-02 -0.20600185E-02
  0.20434786E-02  0.17291149E-02  0.50336148E-02
  0.19740658E-02  0.23502261E-02 -0.56962377E-02
  0.77355917E-02 -0.46352496E-02  0.57750298E-02
 -0.76373408E-02  0.35123747E-02 -0.56568817E-02
  0.27202750E-02  0.56590875E-02 -0.14702240E-03
 -0.17196341E-02 -0.22748128E-02 -0.93548265E-03
 -0.19744079E-02 -0.17486865E-02  0.44155294E-02
 -0.71742722E-03  0.20475918E-02  0.18375464E-02
  0.75190379E-03 -0.50346153E-02  0.72981660E-02
 -0.53327966E-02 -0.51241427E-02 -0.88397442E-02
 -0.63287983E-02 -0.10188505E-01  0.42068523E-02
 -0.21232210E-02  0.85325236E-02  0.46887578E-02
  0.26965366E-02 -0.29475139E-02 -0.18599927E-01
  0.16844650E-02 -0.10357335E-01  0.13709946E-01
  0.13561910E-01 -0.25320835E-02 -0.32147517E-02
 -0.58279532E-02 -0.39059471E-02 -0.45704038E-02
  0.12329758E-01  0.24323941E-02 -0.63257001E-03
  0.15467743E-02  0.25268151E-02 -0.87122986E-02
 -0.38334142E-02  0.12096805E-01 -0.56374299E-02
 -0.54078891E-03 -0.82712125E-02  0.45515906E-02
 -0.10719770E-01  0.22483926E-01  0.55554611E-02
 -0.90239962E-02 -0.18512062E-02 -0.35216237E-02
  0.24438314E-03 -0.79961640E-02  0.10317924E-01
  0.49893325E-02 -0.89502996E-02  0.25685450E-02
  0.12746266E-01  0.92437755E-03 -0.25933591E-02
  0.17096048E-02  0.35527244E-02 -0.90315226E-03
  0.15557081E-02 -0.86474765E-02 -0.95676875E-03
  0.14039271E-01 -0.61475169E-03  0.15366078E-01
  0.75362035E-02 -0.11309770E-01  0.37394847E-02
  0.52045536E-02 -0.56165024E-03  0.29970244E-02
  0.39545125E-02  0.24043362E-02  0.70471121E-02
 -0.23202768E-02  0.62913239E-02 -0.19295949E-02
  0.10553764E-01  0.22713091E-02  0.11180423E-01
 -0.26142778E-02  0.66191285E-02  0.24373986E-02
  0.59822054E-02  0.12243167E-01  0.68644534E-03
  0.11818621E-01 -0.60779394E-02  0.51530630E-02
  0.16017666E-03 -0.86871342E-03 -0.89937320E-03
 -0.34303875E-02 -0.72045856E-02  0.14729656E-02
 -0.13873595E-02 -0.46200341E-03 -0.79562866E-02
  0.11103313E-02  0.64281596E-03 -0.39201448E-02
 -0.41430645E-02  0.18162009E-02  0.10360633E-01
  0.35388227E-02 -0.68068249E-03 -0.41930233E-02
  0.77131261E-02  0.10846315E-01  0.50230011E-03
 -0.83068992E-02  0.17658090E-02 -0.36326666E-02
  0.61407456E-02 -0.33667211E-02 -0.47657628E-02
 -0.13433322E-01 -0.16945335E-02  0.34847916E-02
 -0.32804170E-02  0.27308591E-02  0.71821718E-02
  0.47248227E-03 -0.61730582E-02  0.33570893E-02
  0.12382788E-02  0.90692532E-02  0.40414984E-02
 -0.44359344E-03  0.11179480E-02  0.17311698E-01
 -0.20083937E-02  0.31774545E-02  0.32487868E-02
  0.89018217E-02 -0.90261261E-02  0.31591124E-02
  0.64605604E-02  0.21931632E-02 -0.59064567E-02
  0.54939280E-02 -0.65998866E-02 -0.12444598E-03
  0.48252943E-02  0.10793003E-01  0.25532399E-02
 -0.70489332E-02 -0.45288535E-03  0.65714712E-02
  0.33941908E-02 -0.81307688E-02 -0.61170284E-02
  0.89183487E-02  0.69193387E-02  0.12592090E-02
  0.70020206E-02 -0.34102795E-02 -0.43700809E-02
 -0.92580812E-02  0.28868684E-02  0.56592602E-02
 -0.79748526E-02 -0.73075541E-03 -0.13281255E-01
 -0.85309215E-02  0.10009885E-02 -0.10541515E-01
 -0.29703232E-02 -0.77680219E-02 -0.19156798E-02
 -0.22561457E-02  0.66309263E-02 -0.65180088E-02
 -0.90614947E-02  0.51328132E-02  0.21982654E-02
  0.37547616E-02 -0.38826613E-03 -0.10542530E-01
 -0.92768445E-03 -0.51157056E-02  0.14506452E-01
  0.21206742E-02  0.11268944E-01  0.36060246E-02
 -0.10008235E-02  0.54454337E-02  0.43940578E-02
  0.34243738E-02  0.61743643E-02 -0.48993000E-02
 -0.22469567E-02 -0.28013474E-02 -0.26082045E-02
  0.39864226E-02 -0.25028436E-02 -0.34080224E-02
 -0.66232244E-02 -0.11713235E-02 -0.53145775E-03
 
           1
   1.00000000000000     
  0.10156359E+01  0.50287982E-03 -0.15404613E-03  0.00000000E+00
  0.10118752E-01  0.99747392E+00  0.98390108E+00
  0.16019455E+00  0.17506636E+00  0.17453781E+00
  0.49408214E+00  0.17994151E+00  0.17377411E+00
  0.66481318E+00  0.99864039E+00  0.98972237E+00
  0.84108452E+00  0.15790295E+00  0.16879447E+00
  0.99492591E+00  0.33900828E+00  0.12562152E-02
  0.16177989E+00  0.49168631E+00  0.15720721E+00
  0.33421761E+00  0.34195652E+00  0.10591995E-01
  0.51075516E+00  0.50235922E+00  0.17261451E+00
  0.66146867E+00  0.32615190E+00  0.99721940E+00
  0.81941716E+00  0.49037620E+00  0.16138502E+00
  0.99028661E+00  0.67090606E+00  0.65347261E-02
  0.16299796E+00  0.83710650E+00  0.15501758E+00
  0.33615950E+00  0.67399977E+00  0.80905477E-03
  0.50324671E+00  0.84672787E+00  0.17605724E+00
  0.65629196E+00  0.68174409E+00  0.45703884E-02
  0.83709063E+00  0.84001140E+00  0.17091812E+00
  0.99417373E+00  0.98612703E+00  0.33316559E+00
  0.16360912E+00  0.16862858E+00  0.50119000E+00
  0.33507561E+00  0.10832188E-01  0.32857892E+00
  0.50533610E+00  0.18176308E+00  0.50616298E+00
  0.67216228E+00  0.99442450E+00  0.32441291E+00
  0.83175527E+00  0.14866332E+00  0.50786551E+00
  0.99196749E+00  0.32148170E+00  0.34482392E+00
  0.16004857E+00  0.49058051E+00  0.49999229E+00
  0.32915114E+00  0.34448085E+00  0.34213992E+00
  0.49790686E+00  0.50200775E+00  0.50864463E+00
  0.68401584E+00  0.32741034E+00  0.33475374E+00
  0.82735237E+00  0.50130273E+00  0.49389533E+00
  0.31584099E-02  0.67179241E+00  0.33681759E+00
  0.18498835E+00  0.83846134E+00  0.48912899E+00
  0.34143084E+00  0.66747723E+00  0.33178562E+00
  0.50678136E+00  0.84024884E+00  0.50034989E+00
  0.66624210E+00  0.66380618E+00  0.32900428E+00
  0.82870627E+00  0.81143475E+00  0.49610265E+00
  0.13063206E-01  0.82294084E-03  0.66146690E+00
  0.17234703E+00  0.16523842E+00  0.84353956E+00
  0.33760856E+00  0.37642697E-02  0.65412597E+00
  0.48288547E+00  0.15097693E+00  0.83932043E+00
  0.66845858E+00  0.99613091E+00  0.65355246E+00
  0.83383831E+00  0.16685746E+00  0.82679785E+00
  0.98986218E+00  0.32520954E+00  0.68583657E+00
  0.17387728E+00  0.49430970E+00  0.82737838E+00
  0.33218501E+00  0.32553107E+00  0.67000289E+00
  0.49307699E+00  0.50153597E+00  0.83601829E+00
  0.66457889E+00  0.34032513E+00  0.66918867E+00
  0.83137170E+00  0.51252750E+00  0.82759305E+00
  0.15128801E-01  0.65942042E+00  0.66113176E+00
  0.17670308E+00  0.83149108E+00  0.82666516E+00
  0.33967498E+00  0.65372353E+00  0.66392755E+00
  0.49053219E+00  0.83936867E+00  0.83094486E+00
  0.66617656E+00  0.66256037E+00  0.66643724E+00
  0.83266978E+00  0.84212160E+00  0.83429567E+00
  0.33291800E+00  0.20022358E-02  0.44724734E-03
  0.10451640E+00  0.10569823E+00  0.11022515E-01
  0.23738939E+00  0.23623841E+00  0.15322872E-01
  0.61226037E-01  0.27308557E+00  0.17593965E+00
  0.26720462E+00  0.68847029E-01  0.16463778E+00
  0.43192692E+00  0.95803643E-01  0.23707968E-01
  0.56210631E+00  0.22690280E+00  0.99768868E+00
  0.39441452E+00  0.28747780E+00  0.17461569E+00
  0.61134294E+00  0.62946719E-01  0.16243235E+00
  0.76440866E+00  0.11259865E+00  0.99568887E+00
  0.91016566E+00  0.22136519E+00  0.97738918E+00
  0.72884779E+00  0.25844779E+00  0.16528891E+00
  0.93685273E+00  0.59586309E-01  0.16829346E+00
  0.11072360E+00  0.42852653E+00  0.98256327E+00
  0.23277633E+00  0.55344447E+00  0.98884645E+00
  0.64291492E-01  0.60403631E+00  0.18138938E+00
  0.26397364E+00  0.39634828E+00  0.17501836E+00
  0.43380916E+00  0.44574987E+00  0.10003604E-01
  0.57324624E+00  0.55417471E+00  0.99133829E+00
  0.41085543E+00  0.62036497E+00  0.16460855E+00
  0.61814179E+00  0.40597127E+00  0.17176645E+00
  0.75208880E+00  0.43886033E+00  0.98083266E+00
  0.88881525E+00  0.56581989E+00  0.77476822E-03
  0.72037934E+00  0.60941356E+00  0.16332431E+00
  0.92586786E+00  0.38952856E+00  0.16821881E+00
  0.96418413E-01  0.77840731E+00  0.98830627E+00
  0.24120764E+00  0.89432233E+00  0.99297378E+00
  0.65422151E-01  0.93931672E+00  0.16282727E+00
  0.25291978E+00  0.73440997E+00  0.15672662E+00
  0.43762954E+00  0.77156204E+00  0.99516152E+00
  0.55190480E+00  0.90412812E+00  0.99665411E+00
  0.39320656E+00  0.94453951E+00  0.15415447E+00
  0.59960017E+00  0.73452906E+00  0.18314004E+00
  0.76424561E+00  0.78884673E+00  0.98690522E+00
  0.92250553E+00  0.87484379E+00  0.14746427E-01
  0.73680613E+00  0.93194113E+00  0.14777282E+00
  0.91506255E+00  0.71562940E+00  0.18485471E+00
  0.10251271E+00  0.89440531E-01  0.33744627E+00
  0.21542466E+00  0.25036167E+00  0.34817087E+00
  0.60499497E-01  0.26443161E+00  0.51493304E+00
  0.26680537E+00  0.62439311E-01  0.49638743E+00
  0.43053377E+00  0.11107983E+00  0.34175365E+00
  0.56764513E+00  0.22331963E+00  0.32802051E+00
  0.40995777E+00  0.28111393E+00  0.50292046E+00
  0.59304984E+00  0.58820628E-01  0.47628978E+00
  0.77208401E+00  0.10052804E+00  0.33053297E+00
  0.89535543E+00  0.22607699E+00  0.34149246E+00
  0.75003397E+00  0.27878904E+00  0.48798410E+00
  0.93843021E+00  0.54071538E-01  0.51750984E+00
  0.92341640E-01  0.43578306E+00  0.33031264E+00
  0.23588582E+00  0.56557954E+00  0.33637518E+00
  0.47960972E-01  0.58464741E+00  0.48714244E+00
  0.26247649E+00  0.39726741E+00  0.52473369E+00
  0.42728986E+00  0.44319814E+00  0.33746979E+00
  0.57457079E+00  0.56228700E+00  0.34018570E+00
  0.41300386E+00  0.60941222E+00  0.50044658E+00
  0.61255315E+00  0.39170296E+00  0.49920388E+00
  0.76466265E+00  0.44048986E+00  0.33061525E+00
  0.88527179E+00  0.56403087E+00  0.33013254E+00
  0.73701874E+00  0.61243822E+00  0.50767320E+00
  0.92301441E+00  0.38698261E+00  0.50865922E+00
  0.10609204E+00  0.77058217E+00  0.33444481E+00
  0.23665972E+00  0.91101449E+00  0.31644766E+00
  0.60013575E-01  0.92275198E+00  0.49514990E+00
  0.27626906E+00  0.72502156E+00  0.49978287E+00
  0.42796395E+00  0.77845928E+00  0.33368155E+00
  0.57802787E+00  0.89533590E+00  0.33925443E+00
  0.40666821E+00  0.95015706E+00  0.47694274E+00
  0.60689168E+00  0.72723987E+00  0.50022060E+00
  0.76571934E+00  0.76752989E+00  0.33185578E+00
  0.88756296E+00  0.89673025E+00  0.35009222E+00
  0.73246993E+00  0.91910752E+00  0.49872140E+00
  0.93699836E+00  0.72837277E+00  0.48806842E+00
  0.10939005E+00  0.98436925E-01  0.68120912E+00
  0.22949251E+00  0.22744810E+00  0.66731733E+00
  0.57845486E-01  0.25797297E+00  0.85378528E+00
  0.27505873E+00  0.65904694E-01  0.83529953E+00
  0.42454072E+00  0.12190497E+00  0.66335419E+00
  0.57746646E+00  0.22392325E+00  0.66456553E+00
  0.38568990E+00  0.25605489E+00  0.84677314E+00
  0.61066918E+00  0.71144765E-01  0.83486333E+00
  0.76442151E+00  0.90098410E-01  0.65766093E+00
  0.88825551E+00  0.23127072E+00  0.66807947E+00
  0.72657355E+00  0.26762901E+00  0.81128401E+00
  0.92858601E+00  0.50285765E-01  0.83856947E+00
  0.85549686E-01  0.43649146E+00  0.66155889E+00
  0.23116892E+00  0.56113126E+00  0.66167593E+00
  0.83143745E-01  0.60711096E+00  0.85091889E+00
  0.27226046E+00  0.39283765E+00  0.82497698E+00
  0.42381134E+00  0.42931509E+00  0.67681940E+00
  0.56046496E+00  0.56256475E+00  0.66897116E+00
  0.39092136E+00  0.59126996E+00  0.83174405E+00
  0.59683197E+00  0.39608282E+00  0.83301481E+00
  0.74879707E+00  0.46207693E+00  0.67322108E+00
  0.91187398E+00  0.56231871E+00  0.65957567E+00
  0.72718623E+00  0.61169116E+00  0.84088712E+00
  0.92716936E+00  0.39842379E+00  0.83733400E+00
  0.10930086E+00  0.77943007E+00  0.65772125E+00
  0.23321644E+00  0.90180648E+00  0.66812107E+00
  0.62299273E-01  0.92900996E+00  0.82795729E+00
  0.26250912E+00  0.71558930E+00  0.83489802E+00
  0.42257182E+00  0.78078741E+00  0.67500440E+00
  0.56887213E+00  0.89758248E+00  0.68070190E+00
  0.41899164E+00  0.96245541E+00  0.81116020E+00
  0.60248509E+00  0.73689428E+00  0.83308285E+00
  0.75638081E+00  0.78140075E+00  0.67589051E+00
  0.90535097E+00  0.89789025E+00  0.67791832E+00
  0.73415492E+00  0.94176069E+00  0.84004883E+00
  0.93063832E+00  0.72110082E+00  0.83643858E+00
 -0.12191408E-03  0.15099286E-03 -0.14527947E-03
 -0.10284886E-03  0.34771618E-03 -0.71062311E-04
  0.12183987E-04 -0.63138493E-04 -0.46220484E-03
  0.49267161E-04  0.54619629E-04 -0.15882522E-03
 -0.12560378E-03 -0.10881895E-03  0.24783886E-03
 -0.27961655E-04  0.13989327E-04  0.17144060E-03
 -0.24364815E-04 -0.14866794E-04 -0.21491063E-03
 -0.32680204E-04  0.15537278E-03  0.42251499E-04
  0.16290505E-03 -0.44478544E-04 -0.50500068E-03
  0.79998127E-04  0.13892507E-03  0.30352801E-04
  0.78761442E-05  0.27044188E-03  0.11110339E-03
 -0.24569748E-03  0.11316296E-04 -0.11275653E-03
  0.26661278E-03 -0.19304221E-03 -0.41412659E-03
 -0.19599522E-03  0.11348010E-03  0.37955833E-03
 -0.23036155E-03 -0.71204571E-04 -0.32912753E-03
  0.14097095E-03  0.10335810E-04  0.28692605E-04
  0.14552468E-03 -0.10069151E-03  0.74425385E-04
  0.29080497E-03  0.12164476E-03 -0.62780872E-04
  0.22575300E-03  0.22018883E-03  0.16248322E-03
 -0.18783827E-03  0.20696222E-03 -0.18969404E-03
 -0.15691572E-03 -0.44305068E-04  0.37960105E-04
  0.17920865E-03 -0.20539547E-03 -0.14261081E-04
 -0.82776973E-04 -0.14763032E-03  0.11641537E-03
 -0.16406701E-04 -0.15574513E-03 -0.72323006E-04
  0.22595504E-03  0.21447443E-03  0.52003974E-05
 -0.69197020E-05  0.80918075E-04 -0.31693286E-04
  0.33687682E-06  0.88196691E-04  0.77590782E-04
 -0.87422461E-04 -0.26391759E-03  0.25546565E-03
 -0.28610802E-03  0.76451885E-05  0.30661503E-03
  0.33563875E-03 -0.18317904E-03 -0.89095164E-04
 -0.68518907E-04 -0.19313359E-03 -0.21997469E-03
 -0.44441483E-03  0.17733984E-03 -0.24202790E-03
 -0.29072046E-03 -0.18506835E-03 -0.21855738E-04
  0.37608826E-04 -0.27542405E-03  0.46191185E-04
  0.11951600E-03 -0.36463194E-03  0.28087042E-03
 -0.77665867E-04  0.21139500E-03 -0.39074274E-03
  0.15106770E-04  0.15452237E-03 -0.61502575E-04
 -0.39017737E-03 -0.19380737E-03  0.15606963E-03
  0.36912507E-03 -0.21835953E-03 -0.20455246E-03
 -0.32775980E-04 -0.30441692E-03  0.20530772E-03
  0.55076009E-04  0.22130816E-03  0.18331351E-03
  0.67294595E-04  0.69016025E-04 -0.23064504E-03
 -0.44292435E-03  0.13914594E-03  0.39925426E-04
  0.68050725E-03 -0.22982714E-03 -0.31713032E-04
 -0.19075819E-03  0.23058261E-03  0.23128685E-03
 -0.11440127E-03 -0.14379080E-03 -0.40296992E-04
  0.12574395E-03  0.33396801E-03  0.12793071E-03
 -0.94508519E-04 -0.13449486E-03 -0.35701291E-03
  0.37997771E-03 -0.21266512E-03  0.15659927E-03
 -0.21812395E-03  0.61535477E-04 -0.25702808E-03
  0.28207128E-03 -0.14426007E-03 -0.21064178E-03
 -0.24111113E-03  0.11013012E-03 -0.21452749E-03
  0.15949179E-03  0.68949652E-04 -0.82226902E-04
  0.43279036E-03  0.43620085E-04  0.50903615E-03
 -0.89246345E-03 -0.80195453E-04 -0.14791122E-02
  0.52420222E-03 -0.76937119E-03  0.75547473E-03
  0.80138236E-03  0.36911673E-03  0.25103788E-03
 -0.32622560E-03 -0.54315314E-03  0.40838071E-03
 -0.19932835E-03  0.77929751E-05  0.55091626E-03
  0.54065822E-04  0.10800877E-03  0.39681739E-03
 -0.95237174E-03  0.30407814E-03  0.48867208E-03
  0.79372243E-03 -0.79766952E-03  0.19601186E-04
  0.68985740E-03  0.36868476E-03 -0.28026570E-04
 -0.42617926E-03 -0.27221165E-03  0.68070929E-03
 -0.16178464E-03 -0.47346023E-03  0.11638468E-02
  0.76681768E-04 -0.11843682E-03  0.14696884E-03
  0.53806230E-05  0.84944257E-04  0.11411981E-02
 -0.82623039E-03  0.14207217E-03  0.16279259E-03
  0.53049444E-03  0.45228443E-03 -0.42326508E-03
  0.46030075E-03  0.63814634E-03  0.44247963E-03
 -0.40190359E-03  0.46166416E-03  0.55860888E-03
  0.41304635E-03  0.60839074E-04 -0.16701699E-03
 -0.77264493E-04 -0.49918673E-03  0.44937679E-03
 -0.43156545E-03  0.53247326E-03 -0.93895698E-04
 -0.73315740E-03 -0.35517387E-03 -0.57007016E-03
 -0.72958710E-03 -0.14167259E-03  0.76218481E-03
  0.17651679E-04  0.47550589E-03  0.26134435E-03
 -0.25889018E-03  0.19341719E-03  0.98808630E-03