CONTCAR-qvdai                           
   1.00000000000000     
    14.4414740842709328   -0.0007474433111926    0.0000000000000000
    -0.0007474431454255   14.4414804789008961    0.0000000000000000
     0.0000000000000000    0.0000000000000000    9.7223100151145676
   Sn   Ti   O 
    53     1   108
Direct
  0.0028921288867815  0.9995769843474833  0.0027169699714524
  0.1673291979202807  0.1686632647801625  0.1599388019950196
  0.4977155950263379  0.1679854599723272  0.1573910758048994
  0.6599288046831316  0.0016408325100347  0.0071272544825880
  0.8410798072092401  0.1654043124525932  0.1657624147543310
  0.0102019030685253  0.3378685912567635  0.0041805522764512
  0.1694588148101485  0.5011038096067428  0.1629912710326164
  0.3386319828846388  0.3362077250198839  0.0085061351804503
  0.4941623275779712  0.5036578947154934  0.1669084123211693
  0.6630978525458532  0.3274223471918941  0.0011893680322296
  0.8387372042173005  0.5103400412211149  0.1766445721472195
  0.0056327167076312  0.6678150253731520  0.9890371678859581
  0.1666264963565330  0.8259430768144169  0.1510141652132820
  0.3422675378220714  0.6743976811978224  0.9860446174102603
  0.5064638172820438  0.8417183375109952  0.1670942692117202
  0.6749681917319743  0.6695311409825841  0.9952435931909225
  0.8366449645934433  0.8275523212747042  0.1640783789839828
  0.0034878336836712  0.9968532829988097  0.3376865328506318
  0.1627050113205702  0.1591945268844940  0.4996856129078600
  0.3321290376299716  0.9903184802020627  0.3455208018286931
  0.5000650013914931  0.1716936158600822  0.4940913425688425
  0.6593731119390513  0.0046574433650949  0.3427964779546540
  0.8383581279752832  0.1658900197910902  0.4978777800690522
  0.9960059989711983  0.3366591795406357  0.3378436734418916
  0.1692316196010845  0.5070205723126103  0.5022450807252101
  0.3304959417297292  0.3266801316307372  0.3272995426479864
  0.5019467963232214  0.4952539566844211  0.4938114353096648
  0.6635514776307145  0.3421597920662719  0.3323390797804482
  0.8262673272759334  0.4973316723386572  0.5112949626032763
  0.9915684916718497  0.6722162748393535  0.3365893375420111
  0.1648051473763088  0.8282393745399081  0.4909487842912400
  0.3305136961030586  0.6639236480480257  0.3261783952173939
  0.5016974839048821  0.8332806588343783  0.5019483593412721
  0.6605591646536666  0.6752350571177349  0.3322016600397504
  0.8307934004813637  0.8338586263677781  0.4927598476853584
  0.9948629371936840  0.0028448133589079  0.6739955208020978
  0.1744708117195692  0.1654927856766285  0.8284615054583305
  0.3266985546863069  0.9970684721275449  0.6796458465313747
  0.4904308348820289  0.1629918307189789  0.8407890758546894
  0.6607103724939061  0.0045166209004845  0.6730186418979710
  0.8449048761835640  0.1562677140416833  0.8411231335014070
  0.0010037157555288  0.3382504850789947  0.6795072109859303
  0.1755403026299766  0.5035228940691905  0.8357177732581080
  0.3328181203130430  0.3371528314066415  0.6613213761465219
  0.4961911296110675  0.4913294342689626  0.8276911075239799
  0.6648640606044918  0.3264014121677116  0.6733719741872140
  0.8341293654767762  0.4944244606405885  0.8451281944140406
  0.9926669987519999  0.6669098499510161  0.6571685769994494
  0.1724776328543710  0.8415053356774069  0.8165619345017395
  0.3352243722183230  0.6711043256054212  0.6578937755384356
  0.4944478538506449  0.8395183392571175  0.8348662847198534
  0.6575392229636048  0.6650785861192130  0.6673830084941065
  0.8307142738038505  0.8389025110375756  0.8284335132099717
  0.3312657447799611  0.9980672131753646  0.0219828823454504
  0.1053353366652596  0.1023197724940694  0.0023639509417325
  0.2348332014213805  0.2482375815472417  0.9971570491851907
  0.0683390673220476  0.2748183930396118  0.1640466232399836
  0.2615151667991525  0.0602816159624647  0.1670156961957177
  0.4250555693257927  0.1007361218867277  0.0125548018228736
  0.5574874841955877  0.2136701708692637  0.9876823932566201
  0.3986133144369960  0.2654750439232113  0.1604919051837418
  0.5854090350616120  0.0510709905770051  0.1766728246571985
  0.7734496956361506  0.0959091024649161  0.0002023686983193
  0.9054538008402965  0.2364935409649624  0.0151702311543570
  0.7344711440770705  0.2620584154336587  0.1677545132039922
  0.9432303996517803  0.0631707588022081  0.1717804019879979
  0.1126121942717430  0.4384578580416150  0.9954434473785339
  0.2352529761975407  0.5704037883073878  0.9943018090711306
  0.0575973109233683  0.5967914792505505  0.1624508083692294
  0.2611088268858034  0.3840344002105163  0.1741494410897881
  0.4364402159025078  0.4371871157504656  0.0028405250889647
  0.5710010433004592  0.5620547999156872  0.9938210130328073
  0.3914691103371991  0.5926467836511061  0.1695647083780979
  0.5841004068225466  0.3799487942152263  0.1698869034222509
  0.7636023867684925  0.4308358413428642  0.0081237039595103
  0.8978712164378274  0.5723216335195078  0.9822253985633209
  0.7323799117904323  0.6121277330842483  0.1798319975228143
  0.9456956608249212  0.4184316715608591  0.1661017900715026
  0.1099918104179236  0.7679634879865278  0.9864009792084498
  0.2361457478121664  0.9109980456437680  0.9852466824005356
  0.0654020053888169  0.9310021687953364  0.1715415129307245
  0.2631310084653982  0.7223334140350156  0.1614717002488549
  0.4339394289462777  0.7771602940484510  0.0008152849543232
  0.5696149550960796  0.8806678485498886  0.0030946709182701
  0.4016526287338185  0.9350245882526351  0.1578216887782371
  0.6019670832075762  0.7245113136362656  0.1606889700857601
  0.7772078650911269  0.7639550463590982  0.9870692947120915
  0.9078104511844077  0.8885700866896509  0.0081896179050760
  0.7149275261873430  0.9240986449034215  0.1704806814644701
  0.9287331474867335  0.7249469347243105  0.1638996710602051
  0.1010919027127812  0.1052236631405662  0.3117294139707487
  0.2390489346221157  0.2112833296237916  0.3329687092379521
  0.0681943132430638  0.2710858856784465  0.5084948234004226
  0.2625587023360550  0.0521268655145782  0.5065280473183370
  0.4338585654520518  0.1004495171544195  0.3357685043471685
  0.5699214895469261  0.2299449038894139  0.3348318221544471
  0.4037867081233912  0.2740185274108024  0.5089135441527728
  0.6043023137304218  0.0730009596414385  0.5065481193939244
  0.7712881593052127  0.0854964914085162  0.3115146989260337
  0.8901036703423033  0.2444365116737537  0.3392380473195633
  0.7246078469084934  0.2575815682508318  0.5079297740083353
  0.9511529293353413  0.0843956880153309  0.4981723839292438
  0.1101460675370238  0.4238962584512708  0.3321023008647943
  0.2327523159298329  0.5618496927515753  0.3297477411899168
  0.0600734482053530  0.5928672959680676  0.4966593128916040
  0.2603175518038341  0.3859756822031596  0.5049738727845564
  0.4241193061608944  0.4407000193386997  0.3296629050589001
  0.5574320170906710  0.5654692503139735  0.3297314838919336
  0.3914220662849939  0.6095627147394401  0.4949158992158458
  0.6143363870203968  0.4072514604889330  0.4939275920745300
  0.7720932740202384  0.4304305374803520  0.3406206205605457
  0.8991674437994267  0.5671854228388497  0.3314907250526322
  0.7282879938530340  0.5954727746569295  0.5077175782609481
  0.9374168039908114  0.3952742619392586  0.5114363933269477
  0.1019618999683740  0.7543379888414444  0.3177043404045667
  0.2428470348147546  0.8731112483987340  0.3180311666991080
  0.0599245180024182  0.9302644667181483  0.5042366157913130
  0.2617692695765205  0.7232585190670194  0.5045807047354328
  0.4353084264577232  0.7673926018794012  0.3272870285397852
  0.5566990871657460  0.9036373982445096  0.3359670522937264
  0.3943106092323992  0.9251392525014629  0.5059563152790290
  0.5904245449264991  0.7221422764136596  0.4946849336961883
  0.7741621068091779  0.7674005815224180  0.3180490714099354
  0.9119022379075706  0.8817146386246425  0.3339919472896279
  0.7238005522397992  0.9369709348941317  0.5090440826587136
  0.9233882886505332  0.7246910402052428  0.4994462888926473
  0.1036508702006387  0.1046743969275572  0.6682805497892085
  0.2416758636741447  0.2179150697615000  0.6553539301842005
  0.0628387312820044  0.2660319085671460  0.8338085667017252
  0.2747873861953685  0.0668217631432509  0.8457305568140043
  0.4381317534293470  0.0956371303855900  0.6681066675962828
  0.5608690602588862  0.2246418929352663  0.6849204583713949
  0.4078925217715469  0.2788802667918673  0.8278633185214005
  0.5901932445671348  0.0557996506246278  0.8388389315814776
  0.7830931559896315  0.0950426959772997  0.6555765130916076
  0.9122232904662968  0.2287972780806444  0.6761840331914046
  0.7460429468298722  0.2719010001826650  0.8409984775924636
  0.9282866699926617  0.0485000510362276  0.8435795843534015
  0.1160603768187271  0.4348224481557642  0.6611047065262469
  0.2432188296690401  0.5587978695033825  0.6695919076055615
  0.0785489834316286  0.6054399518044969  0.8298924950715602
  0.2774162744859984  0.3984262055627600  0.8396028187715237
  0.4365729055260013  0.4328692136628751  0.6667179846006855
  0.5661398280499753  0.5645256129073103  0.6653886572633837
  0.3821014397212192  0.5965060133779259  0.8348280022860917
  0.5987615153126919  0.3943989200772244  0.8319134051124657
  0.7861420108623295  0.4168740789120777  0.6727149661274329
  0.8930794730933639  0.5678828030788142  0.6658513878507822
  0.7271438891853913  0.5950717115304002  0.8260360172380907
  0.9464687052917821  0.4098285518703259  0.8573888050297264
  0.1001581650344378  0.7656220705845446  0.6541554354251270
  0.2293609811685970  0.8985991216581954  0.6586708334776433
  0.0582587428198450  0.9341354989982945  0.8403219699521637
  0.2799406306141290  0.7483949514917662  0.8180538558665205
  0.4368733719208169  0.7719397317015865  0.6682000715873713
  0.5607227998833314  0.8994081477104664  0.6745867117231250
  0.3989621987758353  0.9397076281276865  0.8481059899279461
  0.5958194989270955  0.7373117271559528  0.8345647625949338
  0.7648570997900435  0.7643667525564378  0.6740840139966880
  0.8899794175258697  0.9062907433853903  0.6646508475124959
  0.7349764420334670  0.9490136266095830  0.8354740462622914
  0.9344604490227366  0.7384071437713124  0.8163993792007482
 
 -0.24056922E-03  0.24996240E-02 -0.73212052E-03
 -0.16131608E-02 -0.13834610E-02  0.65701868E-03
  0.13651896E-02  0.18152573E-02 -0.30146598E-02
  0.16071769E-02 -0.70394261E-03 -0.15644145E-02
  0.32491578E-02  0.80526061E-03  0.14030094E-02
 -0.41045511E-02 -0.17847167E-02  0.13577656E-02
 -0.42228672E-02 -0.18029712E-02  0.44496578E-02
 -0.19563339E-02 -0.47121840E-04 -0.40543112E-02
  0.21769035E-02 -0.36897832E-02  0.52620030E-03
  0.72949358E-03 -0.13342304E-02 -0.13806174E-02
  0.30973245E-03 -0.10552626E-02 -0.22772627E-02
  0.71293344E-03  0.22984066E-02  0.20864643E-03
 -0.11668442E-03 -0.12822709E-02 -0.26181067E-02
 -0.14882080E-02 -0.16766020E-02 -0.17236136E-02
  0.12630667E-02  0.38349579E-02 -0.10994197E-02
 -0.72818964E-03  0.15740263E-02 -0.16139417E-02
 -0.13526598E-02  0.27408878E-02 -0.88166300E-03
 -0.21867045E-02 -0.93941692E-03  0.60454306E-03
  0.17888231E-02  0.40635246E-04 -0.12484064E-02
 -0.17159891E-02  0.10886791E-02  0.24176095E-02
  0.45287258E-05  0.33474432E-02  0.20010392E-02
  0.91768743E-03  0.16785829E-02  0.35667867E-02
 -0.31076417E-02 -0.15235401E-02  0.38482080E-02
 -0.18602869E-02 -0.23986195E-02 -0.30412672E-02
 -0.89901427E-03  0.51331630E-03  0.70738029E-03
 -0.82300500E-03 -0.27369300E-02  0.16183429E-02
  0.82915813E-04 -0.49411030E-03  0.22774816E-02
 -0.14539252E-02  0.29552988E-03 -0.31503177E-02
  0.35180181E-02  0.12813278E-02 -0.30111237E-03
 -0.28775797E-03  0.21713937E-02 -0.20896950E-02
  0.24494396E-02 -0.87715999E-03 -0.97680302E-03
  0.22362514E-02  0.13501154E-03  0.28409780E-03
  0.16415100E-03 -0.88029118E-03 -0.14432207E-02
 -0.16364570E-02 -0.39343802E-04  0.24376018E-03
  0.21988397E-02  0.20952353E-02 -0.65644023E-04
 -0.19169266E-02 -0.27793287E-02  0.47441383E-02
  0.12042854E-02 -0.46238401E-02  0.25461001E-02
 -0.70006042E-03  0.14865165E-02  0.14710068E-02
  0.94183240E-03  0.10607854E-02  0.15161457E-02
  0.16642742E-02 -0.11671646E-02 -0.19468455E-02
 -0.84995116E-03  0.60320257E-02 -0.36194938E-03
 -0.28003767E-02  0.84475647E-03 -0.50558861E-03
  0.68845645E-02 -0.13198263E-02 -0.95210466E-04
  0.27817606E-02  0.72813100E-03 -0.36554722E-03
 -0.13546051E-02  0.32186344E-02 -0.40745439E-02
  0.78158845E-03 -0.72053533E-03  0.34592242E-03
  0.16063532E-02 -0.62519129E-03  0.42824406E-02
  0.27882285E-04  0.21768318E-02 -0.16223231E-02
  0.27571242E-02 -0.29225572E-02 -0.14394469E-02
  0.78087862E-03  0.14691455E-02 -0.88414240E-03
  0.26327114E-02  0.10616069E-02  0.12443910E-02
 -0.11005460E-02  0.19273488E-02 -0.26558087E-02
  0.76176463E-03  0.23945347E-03  0.46627108E-02
  0.83960173E-03  0.21476239E-03  0.42405454E-02
  0.33522215E-02 -0.36319513E-02  0.38958533E-03
 -0.62013517E-02 -0.20120884E-02 -0.32733334E-02
  0.46109226E-02 -0.40580609E-02 -0.83691294E-03
 -0.45392162E-03 -0.10927452E-01 -0.20301043E-02
  0.20263814E-02 -0.21071187E-02 -0.20684147E-02
  0.55604832E-02 -0.30120848E-02 -0.77083429E-02
  0.10841198E-02  0.39334986E-02 -0.48165060E-02
  0.94898067E-02 -0.21081625E-02  0.23065845E-02
  0.27854104E-02 -0.79826482E-03 -0.16120370E-02
  0.15190489E-02 -0.77013039E-02 -0.29986301E-03
 -0.30207594E-02  0.78304008E-02  0.35567527E-02
 -0.17747467E-02 -0.57097785E-02  0.48664941E-02
 -0.20049415E-02 -0.10872086E-01 -0.20486265E-02
 -0.38483677E-02  0.41372844E-02 -0.14872870E-02
 -0.34791181E-02 -0.67194117E-02 -0.55826363E-02
  0.80562897E-03 -0.42964484E-02  0.65759416E-02
 -0.28420023E-02 -0.35081883E-02  0.17354027E-02
 -0.10731405E-01  0.33678347E-02  0.27517680E-02
  0.32866808E-02  0.92125794E-02  0.10723570E-01
 -0.10783638E-01  0.28086590E-02 -0.36971099E-02
  0.32743062E-03  0.13345471E-02  0.15509943E-02
 -0.39522084E-02  0.38057931E-03  0.19510703E-02
  0.22091438E-02 -0.18816137E-02 -0.16574378E-02
  0.10172434E-03  0.21957560E-02  0.96151482E-02
 -0.24481325E-02  0.16203947E-02 -0.10797046E-01
  0.11493484E-02 -0.12128320E-01  0.19264780E-02
  0.39487139E-02 -0.88466689E-02 -0.18028898E-02
  0.80323027E-02 -0.11530889E-01  0.42572163E-02
  0.54849439E-02 -0.10330413E-01 -0.12399128E-03
 -0.32381944E-02 -0.25033647E-02  0.49494801E-04
 -0.20895502E-03 -0.51320563E-02  0.17360704E-03
  0.37857657E-02  0.18187148E-02 -0.88200528E-02
 -0.38845426E-03 -0.41708795E-02  0.16707214E-02
  0.65812287E-02  0.68127281E-02  0.21595744E-02
  0.35681289E-02  0.10456301E-01 -0.16584010E-03
 -0.48397017E-02  0.97881905E-05  0.61913669E-03
 -0.79980705E-02  0.14166794E-02  0.35240399E-02
 -0.21536374E-02 -0.10694770E-02 -0.95564701E-02
 -0.75260578E-02 -0.67632235E-03 -0.39648285E-02
  0.37702719E-02 -0.73720752E-02 -0.26137290E-02
 -0.65943369E-02  0.90156474E-03 -0.21171586E-02
 -0.52998231E-02 -0.34397158E-02  0.90579385E-02
  0.33860547E-02 -0.10278450E-01 -0.74369335E-02
  0.11569556E-02 -0.19497471E-02  0.62968475E-02
  0.11690689E-02 -0.17943267E-03  0.61407737E-02
  0.93597905E-02 -0.10677373E-03 -0.26188757E-02
 -0.70727469E-03  0.94306591E-02  0.82031206E-02
 -0.26783341E-02 -0.75750715E-02 -0.61403638E-02
 -0.69798560E-02 -0.19594285E-02 -0.16091519E-03
  0.14654529E-02 -0.10466670E-02  0.58610094E-02
 -0.43626919E-02  0.44992385E-02 -0.45250666E-03
  0.17826874E-02  0.73328451E-02 -0.48661885E-02
 -0.38735909E-02 -0.40629996E-02 -0.22083264E-02
  0.11479432E-01 -0.80568890E-02  0.33866608E-02
 -0.15758153E-02 -0.13460873E-02  0.20097589E-02
 -0.24963841E-02  0.92079026E-02 -0.45234859E-03
 -0.10003583E-01  0.26055945E-02 -0.37327912E-02
 -0.18633590E-03 -0.68386879E-02 -0.45731073E-02
  0.57818628E-02  0.46257540E-02  0.74004035E-02
  0.23156652E-02  0.65830761E-02 -0.29739900E-02
 -0.19229958E-02  0.30898365E-02  0.82974436E-02
  0.50483771E-02 -0.47822337E-02 -0.86138700E-02
  0.15524969E-02 -0.49017605E-02  0.10120418E-01
 -0.51288461E-02 -0.82813858E-02 -0.36271084E-02
 -0.38562523E-02  0.37614220E-02 -0.13889664E-01
 -0.23572673E-02 -0.19416393E-02  0.38244076E-02
 -0.12042205E-01 -0.10366464E-02 -0.15729354E-02
 -0.20621102E-01  0.77409583E-02  0.45434182E-02
 -0.29865882E-02  0.11148874E-01  0.11573180E-01
  0.54189745E-02  0.54415697E-02 -0.11700755E-01
 -0.87208206E-02  0.77365233E-02  0.88971527E-02
 -0.12466199E-01 -0.52246960E-02  0.10264987E-02
  0.68901410E-02 -0.37163175E-02  0.76747210E-02
 -0.14248373E-02  0.19247003E-02 -0.54535318E-03
  0.16493512E-03 -0.16735833E-02  0.59607910E-02
  0.37406184E-02 -0.22676746E-02  0.14827962E-02
 -0.43144384E-02  0.68803386E-02  0.11292527E-02
  0.20208645E-02 -0.64028848E-02  0.56333981E-02
  0.24779682E-02 -0.27838910E-02  0.21195412E-02
 -0.16898089E-02  0.49174522E-02 -0.15183520E-02
 -0.31845174E-02  0.44301878E-02  0.57844865E-02
  0.30297295E-03 -0.95882136E-04  0.13102677E-03
 -0.27609280E-02  0.22039167E-02  0.30905667E-02
 -0.17683568E-01 -0.28639371E-02  0.10567120E-02
 -0.56043359E-02  0.40126529E-03 -0.46091343E-02
  0.68067276E-02 -0.29583700E-02 -0.53724325E-02
  0.41467602E-02 -0.36223790E-02 -0.40954149E-02
 -0.11117554E-01  0.22306974E-02 -0.67509122E-03
 -0.75175605E-02 -0.27185416E-02 -0.16513525E-01
  0.36361021E-02 -0.88924610E-02  0.39208063E-03
 -0.41990367E-02  0.25261763E-03 -0.65859977E-02
  0.42012255E-02  0.12677982E-03  0.90399532E-02
  0.14704522E-02  0.74736660E-02 -0.51345893E-02
 -0.15864970E-03  0.76394530E-02  0.35776447E-02
  0.11783235E-02  0.12438242E-01  0.78423981E-04
  0.62928240E-02  0.36932644E-02  0.16636026E-02
  0.95186792E-02 -0.84990019E-03 -0.24951373E-02
  0.60749008E-02 -0.48695591E-02 -0.41460948E-02
  0.90018240E-02  0.51077984E-02  0.11009073E-02
  0.20920593E-02 -0.52795904E-02 -0.43834360E-02
 -0.43463775E-02  0.66501342E-02 -0.33268933E-02
 -0.87675293E-02 -0.16292183E-02 -0.38016383E-03
 -0.71116176E-03  0.54605175E-02  0.10616283E-01
 -0.60744994E-02 -0.10097797E-01 -0.52475647E-02
  0.64790277E-03 -0.55444420E-02 -0.15830351E-02
 -0.22142076E-02 -0.52953191E-02 -0.51948146E-02
  0.49520708E-02 -0.74088152E-02 -0.55428658E-02
  0.56074676E-02 -0.44812747E-03  0.99392132E-03
 
           1
   1.00000000000000     
  0.88027552E+00  0.24528854E-03 -0.11553460E-03  0.00000000E+00
  0.28754796E-02  0.99975007E+00  0.26416668E-02
  0.16721749E+00  0.16856746E+00  0.16000638E+00
  0.49781013E+00  0.16811116E+00  0.15708100E+00
  0.66004009E+00  0.15920938E-02  0.69663447E-02
  0.84130480E+00  0.16546008E+00  0.16590672E+00
  0.99176770E-02  0.33774499E+00  0.43202069E-02
  0.16916640E+00  0.50097895E+00  0.16344895E+00
  0.33849652E+00  0.33620446E+00  0.80891241E-02
  0.49431305E+00  0.50340240E+00  0.16696254E+00
  0.66314836E+00  0.32732996E+00  0.10473630E-02
  0.83875865E+00  0.51026697E+00  0.17641034E+00
  0.56820920E-02  0.66797418E+00  0.98905863E+00
  0.16661841E+00  0.82585429E+00  0.15074488E+00
  0.34216448E+00  0.67428158E+00  0.98586733E+00
  0.50655129E+00  0.84198389E+00  0.16698119E+00
  0.67491777E+00  0.66964013E+00  0.99507759E+00
  0.83655131E+00  0.82774211E+00  0.16398769E+00
  0.33364119E-02  0.99678823E+00  0.33774871E+00
  0.16282888E+00  0.15919735E+00  0.49955721E+00
  0.33201022E+00  0.99039386E+00  0.34576947E+00
  0.50006533E+00  0.17192541E+00  0.49429716E+00
  0.65943666E+00  0.47736801E-02  0.34316334E+00
  0.83814293E+00  0.16578451E+00  0.49827359E+00
  0.99587717E+00  0.33649308E+00  0.33753086E+00
  0.16916937E+00  0.50705611E+00  0.50231784E+00
  0.33043894E+00  0.32649061E+00  0.32746600E+00
  0.50195254E+00  0.49521974E+00  0.49404569E+00
  0.66345080E+00  0.34218025E+00  0.33201505E+00
  0.82651094E+00  0.49742041E+00  0.51126399E+00
  0.99154857E+00  0.67236663E+00  0.33637440E+00
  0.16497476E+00  0.82817864E+00  0.49084831E+00
  0.33066855E+00  0.66393300E+00  0.32620762E+00
  0.50170885E+00  0.83321970E+00  0.50179992E+00
  0.66044585E+00  0.67523233E+00  0.33222673E+00
  0.83094567E+00  0.83400372E+00  0.49275310E+00
  0.99473019E+00  0.26523519E-02  0.67448348E+00
  0.17455419E+00  0.16517261E+00  0.82872339E+00
  0.32665008E+00  0.99717140E+00  0.67979715E+00
  0.49049606E+00  0.16306529E+00  0.84094502E+00
  0.66082561E+00  0.44358066E-02  0.67281840E+00
  0.84484604E+00  0.15668540E+00  0.84108590E+00
  0.80980667E-03  0.33830897E+00  0.67945521E+00
  0.17601702E+00  0.50343153E+00  0.83570798E+00
  0.33301075E+00  0.33720326E+00  0.66128378E+00
  0.49609734E+00  0.49155230E+00  0.82727202E+00
  0.66491818E+00  0.32635152E+00  0.67340755E+00
  0.83424060E+00  0.49438118E+00  0.84556867E+00
  0.99266894E+00  0.66706058E+00  0.65700171E+00
  0.17266854E+00  0.84130297E+00  0.81641388E+00
  0.33527845E+00  0.67120606E+00  0.65780284E+00
  0.49463016E+00  0.83959186E+00  0.83499428E+00
  0.65746302E+00  0.66521204E+00  0.66710984E+00
  0.83076702E+00  0.83891909E+00  0.82891310E+00
  0.33132388E+00  0.99808209E+00  0.22419049E-01
  0.10556745E+00  0.10206829E+00  0.24040222E-02
  0.23440378E+00  0.24809823E+00  0.99682037E+00
  0.68658336E-01  0.27453741E+00  0.16396054E+00
  0.26148370E+00  0.59524943E-01  0.16680689E+00
  0.42519588E+00  0.10059022E+00  0.12342053E-01
  0.55787251E+00  0.21346162E+00  0.98688954E+00
  0.39868840E+00  0.26574742E+00  0.15999650E+00
  0.58606615E+00  0.50925045E-01  0.17691007E+00
  0.77364257E+00  0.95853837E-01  0.36560680E-04
  0.90555896E+00  0.23596027E+00  0.15139388E-01
  0.73426200E+00  0.26260062E+00  0.16812035E+00
  0.94310749E+00  0.62775379E-01  0.17228095E+00
  0.11247332E+00  0.43770501E+00  0.99523273E+00
  0.23498651E+00  0.57069026E+00  0.99414883E+00
  0.57356375E-01  0.59632618E+00  0.16187660E+00
  0.26116460E+00  0.38373690E+00  0.17482582E+00
  0.43624341E+00  0.43694418E+00  0.30190220E-02
  0.57025796E+00  0.56228797E+00  0.99410405E+00
  0.39169673E+00  0.59328472E+00  0.17066769E+00
  0.58335370E+00  0.38014324E+00  0.16950663E+00
  0.76362506E+00  0.43092825E+00  0.82832334E-02
  0.89759755E+00  0.57234797E+00  0.98242608E+00
  0.73253288E+00  0.61199745E+00  0.17966152E+00
  0.94570271E+00  0.41858372E+00  0.16709077E+00
  0.10982230E+00  0.76807568E+00  0.98529044E+00
  0.23622529E+00  0.91015822E+00  0.98544483E+00
  0.65675402E-01  0.93038960E+00  0.17135607E+00
  0.26368716E+00  0.72153499E+00  0.16190958E+00
  0.43431920E+00  0.77644498E+00  0.80253168E-03
  0.56939072E+00  0.88049449E+00  0.30997618E-02
  0.40163814E+00  0.93466922E+00  0.15783955E+00
  0.60222924E+00  0.72463726E+00  0.15978177E+00
  0.77718095E+00  0.76366623E+00  0.98724114E+00
  0.90826619E+00  0.88904186E+00  0.84117436E-02
  0.71517464E+00  0.92482270E+00  0.17046362E+00
  0.92839802E+00  0.72494760E+00  0.16396335E+00
  0.10053808E+00  0.10532173E+00  0.31209188E+00
  0.23889980E+00  0.21120927E+00  0.33198577E+00
  0.67673169E-01  0.27103903E+00  0.50808702E+00
  0.26281975E+00  0.51616400E-01  0.50625921E+00
  0.43340194E+00  0.10051192E+00  0.33555074E+00
  0.56955449E+00  0.22970670E+00  0.33576349E+00
  0.40402114E+00  0.27330681E+00  0.50814861E+00
  0.60438242E+00  0.72865954E-01  0.50719579E+00
  0.77136911E+00  0.85484071E-01  0.31214632E+00
  0.89075179E+00  0.24442915E+00  0.33896868E+00
  0.72455891E+00  0.25823459E+00  0.50877352E+00
  0.95096744E+00  0.83871143E-01  0.49754081E+00
  0.10966274E+00  0.42376055E+00  0.33208575E+00
  0.23285379E+00  0.56177722E+00  0.33035058E+00
  0.59771370E-01  0.59317883E+00  0.49661277E+00
  0.26044102E+00  0.38648345E+00  0.50447336E+00
  0.42385106E+00  0.44041866E+00  0.32943576E+00
  0.55822688E+00  0.56491139E+00  0.33007982E+00
  0.39131294E+00  0.60946950E+00  0.49512262E+00
  0.61416356E+00  0.40788905E+00  0.49388107E+00
  0.77140059E+00  0.43061093E+00  0.34023668E+00
  0.89915452E+00  0.56671188E+00  0.33102035E+00
  0.72868838E+00  0.59579311E+00  0.50847876E+00
  0.93757718E+00  0.39573012E+00  0.51113050E+00
  0.10182875E+00  0.75455194E+00  0.31855778E+00
  0.24319659E+00  0.87278012E+00  0.31714518E+00
  0.60032003E-01  0.92992505E+00  0.50527756E+00
  0.26141409E+00  0.72268506E+00  0.50420763E+00
  0.43504141E+00  0.76765305E+00  0.32585839E+00
  0.55653585E+00  0.90350294E+00  0.33636042E+00
  0.39347674E+00  0.92506743E+00  0.50579453E+00
  0.58899666E+00  0.72267822E+00  0.49515225E+00
  0.77395534E+00  0.76817257E+00  0.31923944E+00
  0.91227749E+00  0.88209146E+00  0.33278845E+00
  0.72319671E+00  0.93750662E+00  0.50995921E+00
  0.92252505E+00  0.72432921E+00  0.49955187E+00
  0.10412796E+00  0.10441709E+00  0.66906994E+00
  0.24157721E+00  0.21804834E+00  0.65529784E+00
  0.62850146E-01  0.26591602E+00  0.83442167E+00
  0.27504640E+00  0.66664751E-01  0.84588307E+00
  0.43783302E+00  0.96113544E-01  0.66822282E+00
  0.56100897E+00  0.22419853E+00  0.68549989E+00
  0.40806410E+00  0.27868751E+00  0.82808133E+00
  0.59007625E+00  0.56140153E-01  0.83868276E+00
  0.78287266E+00  0.95349453E-01  0.65617148E+00
  0.91224427E+00  0.22879064E+00  0.67619751E+00
  0.74585177E+00  0.27205360E+00  0.84131636E+00
  0.92706216E+00  0.48301674E-01  0.84368827E+00
  0.11567231E+00  0.43485021E+00  0.66063063E+00
  0.24369015E+00  0.55859304E+00  0.66903932E+00
  0.78836113E-01  0.60518914E+00  0.82947126E+00
  0.27664645E+00  0.39858063E+00  0.83953338E+00
  0.43605234E+00  0.43268094E+00  0.66501947E+00
  0.56639158E+00  0.56390987E+00  0.66542899E+00
  0.38181068E+00  0.59652349E+00  0.83415059E+00
  0.59905243E+00  0.39440771E+00  0.83284322E+00
  0.78624386E+00  0.41739160E+00  0.67218684E+00
  0.89306851E+00  0.56841180E+00  0.66621937E+00
  0.72722553E+00  0.59593300E+00  0.82604408E+00
  0.94690447E+00  0.41008431E+00  0.85755992E+00
  0.10081728E+00  0.76556325E+00  0.65389880E+00
  0.22978162E+00  0.89826195E+00  0.65824438E+00
  0.58882093E-01  0.93448922E+00  0.84043521E+00
  0.28008548E+00  0.74802937E+00  0.81760299E+00
  0.43657243E+00  0.77240020E+00  0.66785788E+00
  0.56011569E+00  0.89929530E+00  0.67454761E+00
  0.39891297E+00  0.94008574E+00  0.84919794E+00
  0.59539883E+00  0.73661248E+00  0.83402502E+00
  0.76490194E+00  0.76398283E+00  0.67392119E+00
  0.88982608E+00  0.90592406E+00  0.66411653E+00
  0.73531932E+00  0.94850062E+00  0.83490393E+00
  0.93484874E+00  0.73837613E+00  0.81650161E+00
 -0.18177249E-04  0.17555202E-03 -0.84657671E-04
 -0.11417455E-03 -0.98827500E-04  0.68403571E-04
  0.93989568E-04  0.12979648E-03 -0.32444515E-03
  0.10917737E-03 -0.45886646E-04 -0.16120694E-03
  0.22782227E-03  0.55628904E-04  0.14201613E-03
 -0.28343075E-03 -0.12369399E-03  0.13706408E-03
 -0.29045111E-03 -0.12514834E-03  0.45491443E-03
 -0.13476635E-03 -0.47168544E-05 -0.40614476E-03
  0.14596918E-03 -0.25467640E-03  0.58276959E-04
  0.47838995E-04 -0.91148375E-04 -0.14325396E-03
  0.25094947E-04 -0.70387056E-04 -0.22416697E-03
  0.50488307E-04  0.15957349E-03  0.19935240E-04
 -0.82761385E-05 -0.91309832E-04 -0.27304453E-03
 -0.97550828E-04 -0.11535756E-03 -0.18765505E-03
  0.90020079E-04  0.27335387E-03 -0.11656451E-03
 -0.45888230E-04  0.11185483E-03 -0.16460972E-03
 -0.91907383E-04  0.18423944E-03 -0.84360163E-04
 -0.15135958E-03 -0.66412826E-04  0.64697489E-04
  0.12384130E-03 -0.14379650E-05 -0.12198565E-03
 -0.11954010E-03  0.72840997E-04  0.25447359E-03
  0.13355939E-05  0.23458934E-03  0.19756292E-03
  0.60911380E-04  0.11850226E-03  0.37076937E-03
 -0.21219665E-03 -0.10888552E-03  0.39396679E-03
 -0.13385828E-03 -0.16789203E-03 -0.31384465E-03
 -0.63271864E-04  0.40571297E-04  0.76254431E-04
 -0.56061477E-04 -0.18882753E-03  0.15470420E-03
  0.90038764E-05 -0.37905588E-04  0.23182912E-03
 -0.10487575E-03  0.28800297E-04 -0.32136517E-03
  0.23968730E-03  0.89557019E-04 -0.28512640E-04
 -0.23232056E-04  0.15466514E-03 -0.20697441E-03
  0.17012169E-03 -0.58887381E-04 -0.96642248E-04
  0.15381037E-03  0.58686031E-05  0.27762921E-04
  0.13844264E-04 -0.60352419E-04 -0.14782923E-03
 -0.11545798E-03  0.20135194E-05  0.25226639E-04
  0.15491819E-03  0.14422435E-03 -0.12935573E-04
 -0.13556198E-03 -0.19189888E-03  0.49447081E-03
  0.83331751E-04 -0.32396053E-03  0.25776939E-03
 -0.55318473E-04  0.99717541E-04  0.15267695E-03
  0.72067160E-04  0.78824819E-04  0.16959185E-03
  0.11310371E-03 -0.80875646E-04 -0.20034395E-03
 -0.54261299E-04  0.40922960E-03 -0.32161252E-04
 -0.19668880E-03  0.57841201E-04 -0.46577330E-04
  0.47599095E-03 -0.89291552E-04 -0.43983862E-05
  0.19513123E-03  0.53927529E-04 -0.46349268E-04
 -0.95437121E-04  0.21603811E-03 -0.42567239E-03
  0.50893258E-04 -0.47740726E-04  0.36767042E-04
  0.11477715E-03 -0.43499202E-04  0.44750651E-03
 -0.23202202E-05  0.15297392E-03 -0.17414476E-03
  0.19586578E-03 -0.19823974E-03 -0.15790747E-03
  0.54409813E-04  0.10305682E-03 -0.97754882E-04
  0.18100555E-03  0.75597142E-04  0.12791381E-03
 -0.80757069E-04  0.13081150E-03 -0.27723317E-03
  0.52198527E-04  0.16715018E-04  0.47787772E-03
  0.58572286E-04  0.91845892E-05  0.44394394E-03
  0.23587003E-03 -0.25406815E-03  0.84182331E-04
 -0.38548408E-03 -0.79056842E-04 -0.32817660E-03
  0.31929362E-03 -0.27187444E-03 -0.11917471E-03
 -0.61520033E-04 -0.73229210E-03 -0.20116929E-03
  0.15239104E-03 -0.13295087E-03 -0.18513856E-03
  0.31075266E-03 -0.27312688E-03 -0.86621713E-03
  0.71485173E-04  0.26669833E-03 -0.53102005E-03
  0.65444047E-03 -0.16646742E-03  0.26829860E-03
  0.19580832E-03 -0.60960661E-04 -0.18144818E-03
  0.10919677E-03 -0.51492367E-03  0.86634092E-05
 -0.18116225E-03  0.52278811E-03  0.36587551E-03
 -0.10886868E-03 -0.40247378E-03  0.50994870E-03
 -0.13034403E-03 -0.74047712E-03 -0.21869211E-03
 -0.27082604E-03  0.28462033E-03 -0.18843816E-03
 -0.24716381E-03 -0.47229390E-03 -0.57145659E-03
  0.55855714E-04 -0.32606244E-03  0.70280593E-03
 -0.19555797E-03 -0.23979730E-03  0.18442807E-03
 -0.72407288E-03  0.24244507E-03  0.27465948E-03
  0.23993690E-03  0.60794015E-03  0.11464184E-02
 -0.75180411E-03  0.17652096E-03 -0.35440689E-03
  0.84312381E-05  0.67814558E-04  0.14042225E-03
 -0.26622918E-03  0.22651275E-04  0.14120780E-03
  0.13208967E-03 -0.10273670E-03 -0.13186729E-03
  0.47562692E-06  0.18230046E-03  0.98123068E-03