CONTCAR-qvdai                           
   1.00000000000000     
    14.4743895367443027    0.0112378294299857    0.0000000000000000
     0.0112378316792506   14.4743840573675850    0.0000000000000000
     0.0000000000000000    0.0000000000000000    9.7934198193542592
   Sn   Pb   O 
    53     1   107
Direct
  0.0022732865650248  0.0007149515599319  0.0169995319647128
  0.1638892232616323  0.1737009032427989  0.1608232159485138
  0.5105665116794785  0.1700782437160764  0.1705989578934056
  0.6761441954938373  0.0013204663136901  0.0055426832432253
  0.8396496286592556  0.1783042594491422  0.1837168849332513
  0.9858784587078803  0.3349089277935834  0.9952038767827491
  0.1682040332703362  0.5059815721120847  0.1549295331096879
  0.3355203760216470  0.3338282044981147  0.9989068183646321
  0.4920052792294267  0.4955131040692142  0.1687926768886774
  0.6593487416783603  0.3476372102826915  0.9955085439553760
  0.8293414870716300  0.5126061338751705  0.1838931365313897
  0.9961219758589076  0.6802517390845042  0.0069350536820208
  0.1615863713862105  0.8272653735892684  0.1795959297885554
  0.3339691316274893  0.6703968261535753  0.9975294440744461
  0.4989281483445707  0.8477615151223448  0.1516228339565662
  0.6620932104687370  0.6670670434743649  0.9948098021386591
  0.8354301672706487  0.8385550376431496  0.1622975797351278
  0.0127744922534919  0.9871272108906592  0.3536988034965078
  0.1585437943550742  0.1683469354247644  0.5046319562951986
  0.3264277498376384  0.0160054735193334  0.3141793135245032
  0.5039467356080449  0.1553302513488603  0.4977908072146850
  0.6714132513862165  0.9979749191001684  0.3377508686561564
  0.8431994176286342  0.1594551391965106  0.5033303032425892
  0.0004148368213171  0.3420031826470202  0.3290649308137585
  0.1561122724733517  0.4947383091865240  0.4973232783265524
  0.3306219293858790  0.3382068133535810  0.3371140130694101
  0.5016967931652191  0.4894251034510593  0.5092503741097590
  0.6587240174700626  0.3327292183571461  0.3282326245479540
  0.8322641509239854  0.4918511982717448  0.5098863585656930
  0.0031971314438185  0.6682973517825439  0.3432669816702837
  0.1732516764506637  0.8372926367016386  0.5050936625512698
  0.3275668294227884  0.6740247532797278  0.3306089333159389
  0.4948049635955268  0.8404666702907665  0.4953383570990775
  0.6633388645662314  0.6611618732284285  0.3424750445577145
  0.8408760804837186  0.8294315587969648  0.4923810769312648
  0.9881397054554637  0.9940016892136349  0.6948958447536250
  0.1685117565541469  0.1697768325359169  0.8378064645837690
  0.3397101804456057  0.0022401570971678  0.6452289177988998
  0.5069861070224522  0.1641260906950791  0.8306942274930154
  0.6602059911043079  0.9852429864866954  0.6739335143023610
  0.8305471290159354  0.1637923129947877  0.8312888153240897
  0.0025614162773051  0.3317078067675591  0.6614585576548278
  0.1709204594214809  0.5099031030146896  0.8330286031416452
  0.3300161446152329  0.3267482782281673  0.6691662482394249
  0.4979699376965356  0.5005370991285129  0.8336927435510270
  0.6706125387488235  0.3148389975482900  0.6700505612088061
  0.8449350492614562  0.4942510166478192  0.8423845865160984
  0.9964366613558987  0.6630576619204265  0.6705886186458778
  0.1655437753419384  0.8289190207997398  0.8101324470678329
  0.3424259145761786  0.6535704471671527  0.6561047178388846
  0.4955015435205184  0.8179311322298766  0.8268561951212292
  0.6663348522470453  0.6618839780895783  0.6574219829363481
  0.8292993435501300  0.8271282231138044  0.8318056468750515
  0.3384574522363172  0.0072135323624099  0.9682920707253657
  0.1149565496846513  0.0869493219344928  0.9892048085221179
  0.2345708889561183  0.2403134304024118  0.9977109556230963
  0.0588432021188371  0.2727077640666082  0.1498103506249349
  0.2704486314437311  0.0707090386112334  0.1513421209378197
  0.4301891526656531  0.1252267293841035  0.0141809280481304
  0.5715311020635079  0.2380838935513553  0.0057813506174916
  0.3870998421074799  0.2609832138758502  0.1683532055518586
  0.6065052464498676  0.0672610400200317  0.1729368520930425
  0.7741867607773278  0.0991515086446318  0.0095112933544699
  0.8919022988068995  0.2301984653147215  0.0035911519492992
  0.7309819338398348  0.2562958111578936  0.1794510419045347
  0.9432989217614757  0.0716654339592293  0.1567876945537109
  0.1276086377489423  0.4319189841720925  0.9900714926040100
  0.2204153457241917  0.5810579289939524  0.0015817049236064
  0.0515273836712129  0.6065105410311078  0.1781327982725639
  0.2547388072625175  0.3924213646617636  0.1673301583906512
  0.4294666321753596  0.4343851771422813  0.0045215190892113
  0.5611428101121689  0.5544061941263029  0.0085134165584907
  0.3844121156485719  0.5961217249646094  0.1774477533763675
  0.5987862751973064  0.3990505476079360  0.1668535460511241
  0.7766976064410446  0.4476197933963554  0.0050978617306551
  0.8982642187335603  0.5686580340077514  0.0030932627473202
  0.7296207401287073  0.5971862552035621  0.1764927882859482
  0.9292169583842466  0.4103241473468990  0.1492964195134227
  0.1051699303564167  0.7772101069753157  0.0072724586019653
  0.0767633260656625  0.9431339729971868  0.1621710211195792
  0.2722629238296917  0.7483123598881996  0.1566858486612504
  0.4327891937603104  0.7769175010606639  0.9854553311046883
  0.5783381262473596  0.8989788256416473  0.9844599491074439
  0.4066215146755916  0.9544555892095434  0.1531685013267233
  0.6053219323529944  0.7363116222233387  0.1620342175272828
  0.7671518501562349  0.7696134070329512  0.9830091121921335
  0.8914835527743745  0.9070102246212467  0.0023307642829386
  0.7378217671518353  0.9311299722219434  0.1598707303179434
  0.9510214592805885  0.7576268077704410  0.1759385807068174
  0.0920164480252326  0.1008419125737528  0.3325057153392248
  0.2155993929566651  0.2349259616803203  0.3430643452490307
  0.0618526983304656  0.2768707734022071  0.5028910277723545
  0.2616333194821726  0.0758105430223602  0.5049164913589962
  0.4348774684761421  0.0951798774512195  0.3389315975625192
  0.5661313501561412  0.2263161869728391  0.3444231321298850
  0.3902672759347129  0.2591949082761955  0.4980195318701885
  0.5934848791542507  0.0534608183272138  0.5143256027897883
  0.7815026777935324  0.1005140418130056  0.3314738658808435
  0.9055596597058733  0.2357667037984787  0.3503740442607925
  0.7216275844973358  0.2508100297943988  0.5104642791782720
  0.9380412176504127  0.0622821875692663  0.5174810993727436
  0.1005028655940271  0.4373264006119486  0.3252359021609568
  0.2212790024145081  0.5702032322731856  0.3259639589377960
  0.0648031127936730  0.6053403874853476  0.5138370374879693
  0.2708064712716495  0.4025564877626939  0.5163107463022482
  0.4491461221649770  0.4068817400264666  0.3444773762622197
  0.5644379136049614  0.5580837539101066  0.3268755074889655
  0.3989830485525928  0.5849883143465053  0.4746780006242844
  0.6130451696508600  0.4007704228897829  0.5159702470642099
  0.7719492600402661  0.4303114725689744  0.3519776282005324
  0.8941872207250663  0.5770663999815830  0.3441555940931359
  0.7191203227035715  0.5785742843263512  0.5075464813761200
  0.9414509182727064  0.4069754096057496  0.4964979186773250
  0.1078144165802481  0.7738847835802368  0.3337456205352808
  0.2406188265671244  0.9002618702800336  0.3250408738454255
  0.0735515036373905  0.9307128584526971  0.5230533959261339
  0.2654426050249399  0.7306865173793526  0.5055053337210321
  0.4307820460921420  0.7708159218386116  0.3233773018989538
  0.5538466724912011  0.9104207180977627  0.3308330775397664
  0.3933690662275801  0.9481464355851216  0.4853610617075089
  0.6002389068924424  0.7307102074755185  0.4997695105749764
  0.7744058360322046  0.7653193684146821  0.3240144290633656
  0.8981654949426218  0.9076855549569623  0.3330889933839643
  0.7330916210411406  0.9435499325505887  0.5100408920590350
  0.9430764536368222  0.7371937384535779  0.4990280059168646
  0.1009541662436103  0.1166303004068832  0.6746355833364470
  0.2317255586903478  0.2378430427704474  0.6729069478284688
  0.0538800972934147  0.2618395510433245  0.8304213168379476
  0.2680365771586231  0.0693659394457568  0.8106859465889651
  0.4483414105817439  0.0977774462648840  0.6767087794989124
  0.5605183169094383  0.2300935527167862  0.6601138863477169
  0.3981048894114374  0.2582892878196147  0.8356160432379762
  0.6124304122822583  0.0723313310564109  0.8496002755936815
  0.7789620194033711  0.0892773974735167  0.6668835599487285
  0.8938529511520528  0.2387128158253471  0.6693515239464566
  0.7241545563041890  0.2606519220590447  0.8441497732104711
  0.9441149548864510  0.0641702093447674  0.8467638175549970
  0.1049892200063482  0.4224012618945707  0.6676531750109760
  0.2261611754251462  0.5673749440807737  0.6765807473128107
  0.0704144510834156  0.6159266414978311  0.8430924101298511
  0.2726728678668184  0.3971368401638294  0.8304763513893803
  0.4298968946765538  0.4425794301055643  0.6595033428579781
  0.5694741600140694  0.5553091327174621  0.6751517866077332
  0.3972100224999063  0.6067408940452051  0.8384752224166113
  0.5765561718019688  0.3846422498258916  0.8337054163795917
  0.7777348343391043  0.4207203410086195  0.6751670710704204
  0.8920946454291295  0.5645002282434864  0.6733306405258459
  0.7297279845988723  0.5929089725908305  0.8322039179506947
  0.9451192293686574  0.4129518890525059  0.8202272843379995
  0.0963514535824408  0.7649336513154988  0.6626316810827256
  0.2362809004177504  0.8947421639225026  0.6751362954762427
  0.0706540503611301  0.9330752436442121  0.8488517829585440
  0.2569173286578422  0.7329940322441613  0.8337467195352317
  0.4260237547575312  0.7614072128019741  0.6510745267888287
  0.5536027754909011  0.8921763296768069  0.6845979419084481
  0.3894294200619877  0.9196290891210596  0.8155389429846176
  0.6204648198902551  0.7266901156800735  0.8260841872656456
  0.7628815733278208  0.7653712238389522  0.6556683520865938
  0.8907987848405271  0.8874344445908475  0.6766001080564733
  0.7225676735429627  0.9300985134464634  0.8381336955560443
  0.9334149061710110  0.7309917906256028  0.8298057023852861
 
 -0.10186977E-02  0.38435862E-02  0.80241947E-03
 -0.14174263E-02  0.96928857E-03  0.77189981E-03
  0.27317256E-02  0.28003919E-02 -0.29725336E-03
  0.85134723E-03  0.26611613E-02 -0.11122942E-02
  0.19015461E-02  0.12117586E-03 -0.37369912E-02
 -0.20848061E-03 -0.75013413E-03  0.26320522E-02
  0.17884442E-02  0.13828757E-02  0.32191939E-02
  0.56609317E-03 -0.23924923E-02  0.13987713E-02
  0.27306104E-02 -0.13877290E-03  0.34881113E-02
 -0.41272934E-03 -0.32334285E-02 -0.13275673E-03
  0.23173150E-02 -0.80070653E-03 -0.32501582E-02
 -0.14224151E-02  0.74546894E-02  0.24578062E-02
  0.19189259E-02 -0.26910336E-03 -0.47329801E-02
 -0.17024919E-02  0.32631558E-03 -0.13132237E-02
  0.63713020E-03  0.55359646E-02  0.18102796E-02
 -0.87311563E-03  0.48065500E-02  0.18329031E-02
 -0.50005966E-03 -0.46410239E-02  0.12842913E-02
  0.16249478E-02 -0.11868418E-02  0.92588056E-03
  0.31381377E-03  0.16425570E-02  0.24171152E-02
 -0.31587876E-02  0.60674981E-03  0.52413863E-03
 -0.24527664E-02 -0.58404609E-03 -0.88927270E-03
 -0.44284952E-02 -0.17108143E-03  0.30539575E-02
 -0.99663905E-03 -0.36339629E-03  0.15936593E-02
 -0.16943144E-02 -0.15314024E-02  0.21772608E-02
 -0.27855179E-02 -0.40350594E-02 -0.77796424E-03
 -0.12619006E-02  0.19812317E-02 -0.19643547E-02
  0.20829726E-02  0.30863548E-03 -0.32323179E-02
 -0.11337375E-02 -0.97898341E-03  0.27597903E-02
 -0.75906929E-03 -0.87963440E-03 -0.86944579E-03
  0.84544309E-04  0.56370000E-03  0.26623398E-02
  0.33463069E-02 -0.34063229E-02 -0.99651122E-03
  0.13014797E-02  0.31726067E-02  0.14987660E-02
  0.49194557E-03 -0.11637244E-02  0.44428958E-02
  0.22469535E-02 -0.16913576E-02 -0.13324769E-02
 -0.12130307E-02 -0.41623110E-02 -0.59421834E-03
 -0.58564723E-02  0.82011661E-03  0.34818971E-02
 -0.16983970E-02 -0.23299358E-03  0.41678505E-02
  0.16379030E-02 -0.35181716E-02 -0.22257266E-02
 -0.26019839E-02 -0.27170884E-02 -0.67546975E-03
 -0.11427167E-02 -0.86774587E-03 -0.14724629E-02
  0.82758777E-03 -0.48727371E-03 -0.27097970E-02
  0.17569472E-02 -0.51153750E-02 -0.26088264E-02
  0.10275098E-02  0.17759979E-02 -0.18400560E-02
 -0.24315274E-02  0.40722201E-02 -0.36541766E-02
  0.34774102E-03 -0.19549881E-02 -0.34291470E-02
 -0.20466647E-02  0.21240831E-02 -0.15396810E-02
 -0.65265893E-03 -0.14018981E-02  0.32357972E-02
  0.32843139E-02  0.29374747E-02 -0.31496230E-02
 -0.28065666E-02 -0.26954923E-02  0.75241729E-03
 -0.19818896E-02 -0.55256691E-03  0.39981824E-02
 -0.41828367E-03  0.45399972E-02 -0.44659474E-02
 -0.62901765E-03 -0.21740855E-02  0.63833986E-03
  0.30962790E-02  0.15068504E-02 -0.11332169E-02
  0.40650386E-02 -0.82022331E-03  0.11276316E-03
 -0.21030226E-01 -0.59633594E-02 -0.38230882E-02
  0.24712551E-02 -0.62712327E-03 -0.12301782E-02
 -0.11634732E-01 -0.82323974E-02  0.32040749E-02
  0.17572617E-02 -0.24703710E-03 -0.14384205E-03
 -0.75732539E-02  0.11491081E-03  0.88513473E-02
 -0.10291730E-01  0.59186714E-03  0.38888855E-02
 -0.46698406E-02  0.23837214E-03  0.50523610E-02
 -0.13653976E-01 -0.21303786E-02 -0.64829105E-02
  0.68959411E-02  0.10759502E-01  0.25766696E-02
 -0.68453769E-02  0.21975346E-02  0.30768344E-02
  0.49984159E-02  0.24336367E-02  0.25919562E-02
  0.36626792E-02 -0.12636027E-01  0.19446975E-02
 -0.10636667E-02  0.29127220E-02 -0.47721098E-03
 -0.67347236E-02 -0.17385168E-02 -0.25271499E-02
  0.57812811E-03 -0.64803942E-03  0.89816385E-03
  0.90772674E-03  0.35061277E-02 -0.91804539E-02
  0.22057224E-02 -0.24703259E-02  0.18934017E-02
 -0.15735186E-02  0.73785886E-02  0.37491736E-02
 -0.19560851E-02 -0.96825657E-02 -0.10143651E-02
  0.79377153E-03 -0.13676983E-02 -0.11372276E-01
  0.14250003E-01  0.56942969E-02  0.75222865E-02
  0.22507945E-02 -0.67199003E-02 -0.42585817E-02
  0.10954097E-01 -0.82336921E-02 -0.37314020E-02
 -0.11609098E-02 -0.97662265E-02 -0.41867345E-02
  0.65582510E-02  0.88880569E-02 -0.60489943E-02
  0.71253399E-02  0.48693862E-02  0.13831033E-01
  0.56381516E-02  0.14049104E-02  0.73865354E-02
 -0.20598469E-02  0.44551295E-02 -0.59074977E-02
  0.13353636E-02  0.15732785E-01  0.50346950E-02
 -0.25669924E-02 -0.45110787E-02 -0.22045900E-02
 -0.38524868E-02  0.16936279E-02 -0.69097728E-02
 -0.91642893E-04 -0.21584628E-02 -0.47640973E-02
  0.38607574E-02  0.35493264E-02  0.27230683E-02
 -0.10601944E-01  0.60818847E-02  0.36892413E-02
 -0.13590259E-01  0.27853210E-02  0.29886097E-02
 -0.14712553E-01  0.50351670E-02 -0.87555904E-02
  0.39249689E-02 -0.16540082E-02 -0.48827647E-02
  0.13451719E-02  0.33120650E-02 -0.66211092E-02
  0.94786896E-02 -0.58733428E-02  0.85522822E-02
  0.12098130E-01 -0.37598713E-02  0.20477669E-02
  0.11488520E-02 -0.75294229E-04  0.19454408E-03
  0.84317394E-02  0.61661979E-02 -0.77866611E-02
  0.54037174E-02  0.80711497E-02  0.46106247E-02
  0.20449058E-02 -0.33364605E-02 -0.63509352E-02
  0.95261703E-02 -0.58095231E-03  0.43487684E-02
 -0.70285568E-04 -0.11219337E-01  0.11717613E-01
 -0.18281230E-01  0.91655582E-02 -0.28418654E-03
 -0.68208169E-02 -0.34276603E-02 -0.62523028E-02
  0.30205685E-02 -0.80278487E-03  0.40845602E-03
  0.17274806E-02  0.21024985E-02  0.14029436E-01
 -0.19680685E-02 -0.54584737E-02  0.91768071E-02
  0.10296329E-03 -0.48420307E-02  0.68453258E-02
 -0.60487619E-02  0.89080540E-02 -0.73565487E-02
 -0.49935908E-02 -0.99014526E-02 -0.10874449E-01
  0.64181431E-02  0.16510497E-01 -0.52474875E-02
  0.91869838E-02 -0.27524879E-03 -0.23618426E-02
  0.67599713E-02  0.37406608E-02 -0.80372111E-02
 -0.58472671E-02  0.47861603E-02 -0.41829409E-02
  0.47388420E-02 -0.49575512E-02  0.44825448E-02
  0.70303186E-02  0.56866536E-05 -0.55755377E-02
  0.46425279E-02 -0.30617712E-02  0.12957329E-01
  0.34823748E-02  0.21767467E-02 -0.18358684E-02
  0.70675039E-02  0.11982141E-02 -0.99457679E-02
  0.62082562E-02 -0.23651437E-02  0.38545104E-02
 -0.14046259E-01  0.36446338E-02 -0.44994547E-02
  0.66687812E-02 -0.15814006E-02 -0.74540519E-02
  0.34443237E-02 -0.20141834E-02  0.31184973E-02
 -0.24784294E-02  0.75008457E-02  0.14372131E-02
 -0.85680766E-03  0.22134287E-02  0.76220414E-03
 -0.50338824E-02 -0.52906731E-02 -0.17328758E-02
 -0.28957154E-02 -0.11988560E-02 -0.49423790E-02
  0.32086677E-02  0.43773678E-02 -0.81658624E-03
  0.78432727E-02  0.73203898E-02  0.97965762E-03
 -0.44678890E-02 -0.49246097E-02 -0.98815538E-02
  0.82023685E-02 -0.77809018E-02  0.98344742E-03
 -0.52868543E-02 -0.11541540E-01 -0.46195104E-02
  0.31286700E-03 -0.52765188E-02  0.57457928E-02
  0.54179887E-02  0.16318683E-01  0.18958534E-02
 -0.46573711E-02  0.67184023E-02  0.24393591E-02
 -0.27789891E-02 -0.26910565E-02  0.67889195E-02
  0.45100728E-02  0.11431001E-01 -0.24924677E-03
 -0.71785496E-02 -0.61774526E-02  0.12529018E-01
 -0.63264936E-02 -0.66020467E-02  0.54655110E-02
  0.68641433E-02  0.47809989E-02  0.30148319E-02
  0.61012925E-02 -0.38028449E-02  0.15957875E-02
 -0.11991576E-02 -0.58811040E-03 -0.10598612E-01
  0.48681020E-02 -0.39103382E-02 -0.16956020E-02
  0.87396249E-02 -0.19561403E-02 -0.61459646E-02
  0.19038842E-02 -0.39435264E-02  0.31086410E-02
  0.19288793E-01  0.11680246E-02  0.15379496E-01
 -0.53178901E-03  0.24653974E-02  0.13243318E-02
  0.12703260E-03 -0.69587985E-02  0.63273271E-02
 -0.45225347E-02  0.73063818E-02 -0.10110530E-01
 -0.65139474E-02  0.31825945E-02 -0.22397000E-02
 -0.75004640E-02 -0.36376009E-02  0.15289756E-02
 -0.26823005E-03 -0.26168746E-02 -0.46819033E-02
 -0.62089266E-02  0.66439721E-02 -0.63371050E-02
  0.23620052E-02  0.41155738E-03  0.38220007E-02
  0.10843579E-02 -0.75472608E-02 -0.90456300E-02
  0.67822005E-03 -0.47856275E-03  0.57301784E-02
  0.80054835E-02  0.69822371E-02 -0.58305692E-02
 -0.15348763E-02 -0.51524685E-03 -0.13976669E-01
 -0.27437633E-02 -0.61445171E-02 -0.57265731E-02
  0.20046363E-02 -0.10496574E-01 -0.30913709E-02
  0.27345372E-02 -0.14450066E-01  0.89586353E-02
 -0.22119847E-03  0.64413213E-02  0.17185501E-02
 -0.32773721E-04  0.23222385E-02 -0.48270503E-02
 
           1
   1.00000000000000     
  0.54522799E+00 -0.36983346E-03 -0.17144297E-03  0.00000000E+00
  0.22027010E-02  0.98055039E-03  0.17081467E-01
  0.16379124E+00  0.17376795E+00  0.16090203E+00
  0.51075509E+00  0.17027157E+00  0.17056861E+00
  0.67620287E+00  0.15042739E-02  0.54291076E-02
  0.83978100E+00  0.17831253E+00  0.18333530E+00
  0.98586410E+00  0.33485711E+00  0.99547263E+00
  0.16832752E+00  0.50607702E+00  0.15525824E+00
  0.33555961E+00  0.33366288E+00  0.99904965E+00
  0.49219394E+00  0.49550337E+00  0.16914885E+00
  0.65932040E+00  0.34741384E+00  0.99549499E+00
  0.82950163E+00  0.51255069E+00  0.18356126E+00
  0.99602330E+00  0.68076684E+00  0.71860187E-02
  0.16171896E+00  0.82724668E+00  0.17911265E+00
  0.33385149E+00  0.67041946E+00  0.99739535E+00
  0.49897187E+00  0.84814395E+00  0.15180768E+00
  0.66203263E+00  0.66739916E+00  0.99499696E+00
  0.83539587E+00  0.83823443E+00  0.16242872E+00
  0.12886820E-01  0.98704513E+00  0.35379334E+00
  0.15856539E+00  0.16846040E+00  0.50487877E+00
  0.32620948E+00  0.16047562E-01  0.31423283E+00
  0.50377731E+00  0.15529003E+00  0.49770000E+00
  0.67110731E+00  0.99796334E+00  0.33806271E+00
  0.84313058E+00  0.15943009E+00  0.50349303E+00
  0.29786288E-03  0.34189747E+00  0.32928725E+00
  0.15592004E+00  0.49445969E+00  0.49724384E+00
  0.33053464E+00  0.33834376E+00  0.33691343E+00
  0.50184068E+00  0.48944631E+00  0.50892032E+00
  0.65864574E+00  0.33266164E+00  0.32851443E+00
  0.83221176E+00  0.49179047E+00  0.50979758E+00
  0.32029422E-02  0.66833629E+00  0.34353883E+00
  0.17348305E+00  0.83705712E+00  0.50499191E+00
  0.32765658E+00  0.67424387E+00  0.33076197E+00
  0.49483901E+00  0.84038624E+00  0.49579202E+00
  0.66349419E+00  0.66104490E+00  0.34233899E+00
  0.84079250E+00  0.82914406E+00  0.49232040E+00
  0.98773505E+00  0.99405866E+00  0.69525138E+00
  0.16839443E+00  0.16976083E+00  0.83823204E+00
  0.33982353E+00  0.19970072E-02  0.64500165E+00
  0.50680649E+00  0.16393851E+00  0.83062526E+00
  0.66012709E+00  0.98518310E+00  0.67378316E+00
  0.83060433E+00  0.16375860E+00  0.83101212E+00
  0.26830739E-02  0.33135430E+00  0.66119217E+00
  0.17099135E+00  0.51002575E+00  0.83284072E+00
  0.32984794E+00  0.32702975E+00  0.66879312E+00
  0.49799407E+00  0.50040202E+00  0.83334260E+00
  0.67047103E+00  0.31498586E+00  0.66989335E+00
  0.84489003E+00  0.49415420E+00  0.84271499E+00
  0.99666341E+00  0.66326043E+00  0.67026701E+00
  0.16535002E+00  0.82873295E+00  0.81020928E+00
  0.34228902E+00  0.65353238E+00  0.65651297E+00
  0.49547240E+00  0.81824481E+00  0.82640018E+00
  0.66629151E+00  0.66173381E+00  0.65748716E+00
  0.82951318E+00  0.82723216E+00  0.83168993E+00
  0.33873834E+00  0.71566470E-02  0.96830358E+00
  0.11350394E+00  0.86538456E-01  0.98881444E+00
  0.23474166E+00  0.24026997E+00  0.99758534E+00
  0.58039828E-01  0.27213963E+00  0.15013752E+00
  0.27057005E+00  0.70691877E-01  0.15132743E+00
  0.42966593E+00  0.12523507E+00  0.15084734E-01
  0.57082004E+00  0.23812534E+00  0.61784423E-02
  0.38677720E+00  0.26099993E+00  0.16886910E+00
  0.60556204E+00  0.67114590E-01  0.17227489E+00
  0.77466261E+00  0.99894487E-01  0.97743955E-02
  0.89142925E+00  0.23035065E+00  0.39053256E-02
  0.73132713E+00  0.25646368E+00  0.17971570E+00
  0.94355265E+00  0.70792245E-01  0.15698627E+00
  0.12753500E+00  0.43212027E+00  0.99002276E+00
  0.21995015E+00  0.58093818E+00  0.13236592E-02
  0.51567360E-01  0.60646574E+00  0.17822451E+00
  0.25480133E+00  0.39266355E+00  0.16639275E+00
  0.42961915E+00  0.43421439E+00  0.47148532E-02
  0.56103370E+00  0.55491605E+00  0.88962423E-02
  0.38427749E+00  0.59545288E+00  0.17734418E+00
  0.59884119E+00  0.39895601E+00  0.16569233E+00
  0.77768180E+00  0.44801243E+00  0.58659577E-02
  0.89842008E+00  0.56819365E+00  0.26584216E-02
  0.73037797E+00  0.59661682E+00  0.17611178E+00
  0.92913728E+00  0.40964948E+00  0.14886891E+00
  0.10562255E+00  0.77782381E+00  0.66547996E-02
  0.77255337E-01  0.94347001E+00  0.16358330E+00
  0.27265237E+00  0.74840912E+00  0.15744008E+00
  0.43264664E+00  0.77722541E+00  0.98485212E+00
  0.57842954E+00  0.90006569E+00  0.98497404E+00
  0.40644441E+00  0.95414407E+00  0.15294339E+00
  0.60505568E+00  0.73642884E+00  0.16132866E+00
  0.76714563E+00  0.76946429E+00  0.98252265E+00
  0.89175009E+00  0.90725523E+00  0.26088151E-02
  0.73708898E+00  0.93155072E+00  0.16024744E+00
  0.95008239E+00  0.75781997E+00  0.17624375E+00
  0.90999723E-01  0.10119057E+00  0.33161169E+00
  0.21587065E+00  0.23481148E+00  0.34256577E+00
  0.61945455E-01  0.27709952E+00  0.50221495E+00
  0.26228849E+00  0.75404259E-01  0.50578976E+00
  0.43571350E+00  0.94919468E-01  0.33914069E+00
  0.56621073E+00  0.22631092E+00  0.34444300E+00
  0.39084947E+00  0.25962046E+00  0.49722444E+00
  0.59385778E+00  0.54018145E-01  0.51479639E+00
  0.78164413E+00  0.10028342E+00  0.33082538E+00
  0.90621783E+00  0.23572606E+00  0.35081809E+00
  0.72162333E+00  0.25003492E+00  0.51166076E+00
  0.93677772E+00  0.62916395E-01  0.51745208E+00
  0.10003182E+00  0.43708996E+00  0.32459748E+00
  0.22148773E+00  0.57014761E+00  0.32600567E+00
  0.64922347E-01  0.60548555E+00  0.51526957E+00
  0.27067079E+00  0.40217948E+00  0.51724778E+00
  0.44915350E+00  0.40654721E+00  0.34517635E+00
  0.56401954E+00  0.55869951E+00  0.32612433E+00
  0.39863858E+00  0.58430451E+00  0.47356762E+00
  0.61348770E+00  0.40191075E+00  0.51543443E+00
  0.77258398E+00  0.43029196E+00  0.35173646E+00
  0.89465405E+00  0.57732447E+00  0.34333492E+00
  0.71871609E+00  0.57890526E+00  0.50711936E+00
  0.94177858E+00  0.40663265E+00  0.49695563E+00
  0.10830012E+00  0.77388480E+00  0.33317631E+00
  0.24093973E+00  0.90005009E+00  0.32636394E+00
  0.73791976E-01  0.93086306E+00  0.52286594E+00
  0.26593082E+00  0.73076892E+00  0.50448978E+00
  0.43121109E+00  0.77065219E+00  0.32377088E+00
  0.55287605E+00  0.91067327E+00  0.33037364E+00
  0.39382988E+00  0.94803682E+00  0.48459993E+00
  0.60047697E+00  0.73057087E+00  0.50008794E+00
  0.77423420E+00  0.76583772E+00  0.32416118E+00
  0.89810618E+00  0.90783852E+00  0.33316682E+00
  0.73274413E+00  0.94318468E+00  0.50986395E+00
  0.94287646E+00  0.73711107E+00  0.49852334E+00
  0.10117561E+00  0.11693255E+00  0.67455220E+00
  0.23226704E+00  0.23834837E+00  0.67300698E+00
  0.53571686E-01  0.26149956E+00  0.82941232E+00
  0.26860368E+00  0.68827936E-01  0.81078637E+00
  0.44797677E+00  0.96980352E-01  0.67623708E+00
  0.56054022E+00  0.22972899E+00  0.66070059E+00
  0.39847833E+00  0.25941642E+00  0.83580963E+00
  0.61210829E+00  0.72795739E-01  0.84984936E+00
  0.77877017E+00  0.89091628E-01  0.66757677E+00
  0.89416393E+00  0.23950231E+00  0.66932607E+00
  0.72365894E+00  0.26022552E+00  0.84542910E+00
  0.94367823E+00  0.63714429E-01  0.84732190E+00
  0.10546319E+00  0.42273120E+00  0.66796102E+00
  0.22658290E+00  0.56711189E+00  0.67674369E+00
  0.70331636E-01  0.61588607E+00  0.84201019E+00
  0.27300940E+00  0.39686642E+00  0.83030321E+00
  0.43050080E+00  0.44244382E+00  0.65887578E+00
  0.56960591E+00  0.55503658E+00  0.67546921E+00
  0.39854258E+00  0.60682056E+00  0.84004561E+00
  0.57651930E+00  0.38481261E+00  0.83384064E+00
  0.77774398E+00  0.42023957E+00  0.67581315E+00
  0.89178180E+00  0.56500525E+00  0.67229826E+00
  0.72927778E+00  0.59312920E+00  0.83197522E+00
  0.94460124E+00  0.41270098E+00  0.82038341E+00
  0.96333063E-01  0.76475287E+00  0.66215361E+00
  0.23585158E+00  0.89520151E+00  0.67448922E+00
  0.70817214E-01  0.93310355E+00  0.84924205E+00
  0.25699265E+00  0.73247255E+00  0.83282308E+00
  0.42607064E+00  0.76137411E+00  0.65165963E+00
  0.55415548E+00  0.89265829E+00  0.68400259E+00
  0.38932341E+00  0.91959357E+00  0.81411179E+00
  0.62027559E+00  0.72626575E+00  0.82549945E+00
  0.76302063E+00  0.76464593E+00  0.65535269E+00
  0.89098848E+00  0.88643598E+00  0.67751487E+00
  0.72255205E+00  0.93054354E+00  0.83830918E+00
  0.93341252E+00  0.73115223E+00  0.82931282E+00
 -0.69418840E-04  0.26542534E-03  0.91419442E-04
 -0.98407192E-04  0.68807646E-04  0.77470865E-04
  0.19244313E-03  0.19184060E-03 -0.29519060E-04
  0.59492341E-04  0.18189425E-03 -0.11315906E-03
  0.12829007E-03  0.15556508E-04 -0.37222830E-03
 -0.19594831E-04 -0.51987705E-04  0.27403503E-03
  0.12552483E-03  0.96633697E-04  0.32247407E-03
  0.40505302E-04 -0.16318711E-03  0.14212506E-03
  0.18938494E-03 -0.10857842E-04  0.34955731E-03
 -0.32311807E-04 -0.22066016E-03 -0.13325782E-04
  0.15462929E-03 -0.50199942E-04 -0.32657513E-03
 -0.98960607E-04  0.51889863E-03  0.25178450E-03
  0.13159566E-03 -0.24401475E-04 -0.47452977E-03
 -0.11320667E-03  0.22080373E-04 -0.13708243E-03
  0.39862636E-04  0.38439205E-03  0.18061914E-03
 -0.65160674E-04  0.33622403E-03  0.18104357E-03
 -0.34621312E-04 -0.31690007E-03  0.13204009E-03
  0.11475657E-03 -0.87554176E-04  0.10025308E-03
  0.22028007E-04  0.11151726E-03  0.24524158E-03
 -0.21784841E-03  0.45458215E-04  0.47474732E-04
 -0.16409420E-03 -0.45218321E-04 -0.95341741E-04
 -0.30607132E-03 -0.13739604E-04  0.31299292E-03
 -0.62786918E-04 -0.28217387E-04  0.15884674E-03
 -0.11607880E-03 -0.10383691E-03  0.22506609E-03
 -0.19629253E-03 -0.27852137E-03 -0.83173973E-04
 -0.83665305E-04  0.14226094E-03 -0.20099867E-03
  0.13941066E-03  0.19899600E-04 -0.32004841E-03
 -0.83375612E-04 -0.67042221E-04  0.27125064E-03
 -0.51553016E-04 -0.62936483E-04 -0.92664021E-04
  0.64856636E-05  0.38114332E-04  0.27357713E-03
  0.22990974E-03 -0.23279925E-03 -0.98771032E-04
  0.89848227E-04  0.22122417E-03  0.15188178E-03
  0.34730329E-04 -0.78213709E-04  0.45711886E-03
  0.15455524E-03 -0.11770297E-03 -0.12831051E-03
 -0.77395975E-04 -0.28874618E-03 -0.63340382E-04
 -0.40989203E-03  0.56951376E-04  0.36586022E-03
 -0.11607087E-03 -0.19144987E-04  0.42871066E-03
  0.11721517E-03 -0.24653305E-03 -0.23769512E-03
 -0.17970918E-03 -0.19266820E-03 -0.79253724E-04
 -0.80603344E-04 -0.66150931E-04 -0.15408303E-03
  0.57106656E-04 -0.31491976E-04 -0.28232915E-03
  0.12446602E-03 -0.35331143E-03 -0.27243492E-03
  0.73587646E-04  0.12798538E-03 -0.18988135E-03
 -0.17392273E-03  0.27927630E-03 -0.37314791E-03
  0.24890429E-04 -0.13291470E-03 -0.35094838E-03
 -0.14116838E-03  0.14005973E-03 -0.15689466E-03
 -0.34608999E-04 -0.10551749E-03  0.33398783E-03
  0.22654568E-03  0.20257724E-03 -0.32578356E-03
 -0.18658349E-03 -0.18372462E-03  0.64460244E-04
 -0.13076848E-03 -0.36312421E-04  0.41073241E-03
 -0.34069240E-04  0.31119195E-03 -0.45193559E-03
 -0.46788515E-04 -0.14662495E-03  0.59263515E-04
  0.21640225E-03  0.10216832E-03 -0.11457012E-03
  0.27941091E-03 -0.58492570E-04  0.43019319E-05
 -0.14649650E-02 -0.44338670E-03 -0.42470892E-03
  0.21031441E-03 -0.72037454E-05 -0.12712405E-03
 -0.79899153E-03 -0.56903889E-03  0.29106875E-03
  0.15725414E-03 -0.38067422E-04 -0.18845826E-04
 -0.53530846E-03  0.37840361E-04  0.96790510E-03
 -0.69786072E-03  0.55782186E-04  0.39191587E-03
 -0.33149474E-03  0.21523760E-05  0.49275564E-03
 -0.95483306E-03 -0.12709655E-03 -0.66832059E-03
  0.46144681E-03  0.72944162E-03  0.27778703E-03
 -0.47789481E-03  0.13429810E-03  0.33567593E-03
  0.38969800E-03  0.10885074E-03  0.27489837E-03
  0.26828465E-03 -0.88986865E-03  0.11527962E-03
 -0.20596064E-04  0.21359699E-03 -0.56262714E-04
 -0.49604787E-03 -0.13749131E-03 -0.25247306E-03
  0.14481737E-04 -0.29931268E-04  0.13554615E-03
  0.29248235E-04  0.24335275E-03 -0.95523796E-03
  0.14371106E-03 -0.18724117E-03  0.20012970E-03
 -0.11970532E-03  0.48570345E-03  0.40618558E-03
 -0.14406857E-03 -0.67363081E-03 -0.52663604E-04
  0.46731472E-04 -0.90193881E-04 -0.11651943E-02
  0.10333890E-02  0.44194508E-03  0.74619852E-03
  0.13961901E-03 -0.49141410E-03 -0.46262036E-03
  0.80277912E-03 -0.61321071E-03 -0.36596848E-03
 -0.98842699E-04 -0.65493727E-03 -0.48408893E-03
  0.44776069E-03  0.60871786E-03 -0.58983491E-03
  0.47702295E-03  0.36452686E-03  0.13464164E-02
  0.36631709E-03  0.11820794E-03  0.75488072E-03