CONTCAR-qvdai                           
   1.00000000000000     
    14.4414740842709328   -0.0007474433111926    0.0000000000000000
    -0.0007474431454255   14.4414804789008961    0.0000000000000000
     0.0000000000000000    0.0000000000000000    9.7223100151145676
   Sn   Ti   O 
    53     1   108
Direct
  0.9941745928736624  0.9988959332456723  0.9944417713258421
  0.1611022263372092  0.1601884678502420  0.1790248641261418
  0.4980560649826282  0.1837737344564214  0.1617073811616696
  0.6589345592364604  0.9948340816452190  0.9939966717551872
  0.8287266006984220  0.1549485033896963  0.1591860469874467
  0.0033106522872898  0.3344318025698395  0.0009000762340200
  0.1683247574678995  0.4969250947020090  0.1799636735531386
  0.3269306731323319  0.3356138367987349  0.9984855672518744
  0.4967089381329290  0.5150746214483376  0.1630005794853227
  0.6619994348566626  0.3380185100937306  0.0122803856667734
  0.8440067525631921  0.5004015844524921  0.1724335219731536
  0.9959858093017467  0.6651829324547552  0.9969308041778882
  0.1685355810416931  0.8479897785457118  0.1601144271430535
  0.3418707942274611  0.6668529610713531  0.9986883938877616
  0.4878816033721224  0.8253953192010977  0.1668320268749158
  0.6725860250887126  0.6639202554146921  0.9988515149542099
  0.8424191828413156  0.8464099412263699  0.1575106870301713
  0.9856523081439229  0.0064056084887525  0.3427040506532180
  0.1791264462330750  0.1682751100956445  0.5015769898148205
  0.3377145298534158  0.0005953286950026  0.3363951011739877
  0.4960134936337602  0.1616731641352569  0.5006505557891124
  0.6539496909226677  0.9956968214345179  0.3227550443577368
  0.8345267538497195  0.1600406053534472  0.5104915551017023
  0.9982075002264175  0.3346786898578797  0.3265966720055065
  0.1608289253597340  0.4999487633889770  0.5119438837145693
  0.3409997061594280  0.3406304706875506  0.3401602328282535
  0.5145461604526587  0.5084527688541384  0.5056524916287045
  0.6662169807707181  0.3369170171704425  0.3278148445807676
  0.8374339273022684  0.4910443574391296  0.4983080203083981
  0.9972161818428362  0.6662085797910914  0.3345834656172156
  0.1564531984325281  0.8373134043115031  0.4907218527392129
  0.3242597973673477  0.6690214692236520  0.3396248390618861
  0.4925611282367032  0.8317947486419106  0.4941035852040391
  0.6768993008135219  0.6691864537928155  0.3282606731975951
  0.8387956990095992  0.8380282906879444  0.4897447746764194
  0.0086783943522125  0.9948858977550873  0.6676637712250161
  0.1667416403286011  0.1706476391815235  0.8434488077588220
  0.3237201462899336  0.9986899289910348  0.6777568382542255
  0.5078433371666138  0.1679353142170982  0.8270584668083490
  0.6701709240820863  0.9858092911158276  0.6567696953115841
  0.8333706120903369  0.1611135683293481  0.8396954263103064
  0.0047193124094994  0.3283644792721344  0.6642194296148528
  0.1611201937257073  0.5008675522235959  0.8443024744139773
  0.3388669290259445  0.3286139774367711  0.6664448670288823
  0.4966211726770692  0.5075789298465123  0.8367597794890281
  0.6599881906314170  0.3330952808427525  0.6649453180053373
  0.8309711193218473  0.4915915607136787  0.8411917094975840
  0.9955272080534729  0.6693306280762219  0.6747836081176460
  0.1709936274024322  0.8270552044551659  0.8247956001011917
  0.3317634680042369  0.6671336416170653  0.6666500152902110
  0.5016980154895865  0.8350844996512158  0.8297334427597228
  0.6730749421681110  0.6692615827279511  0.6529273769575552
  0.8273041311014997  0.8369838702002158  0.8215894382178360
  0.3503221328874857  0.0059482535011449  0.9940679342842754
  0.1215790582908352  0.0876944186572076  0.0042252935754398
  0.2298410170453248  0.2389459714680323  0.9988568544796325
  0.0696321529211797  0.2756079948070057  0.1577901906689172
  0.2660527681502364  0.0676061102233598  0.1871056195802904
  0.4330696660295177  0.1006935777729880  0.0227519606115875
  0.5657334357911820  0.2276504949521758  0.9917719012827878
  0.3964010575162514  0.2727265384573745  0.1696395591661460
  0.6176046771210132  0.0732235963094726  0.1639769674308759
  0.7771535651462675  0.0868624999981987  0.9950234384178887
  0.8917842973668346  0.2224190869105816  0.0036394850727188
  0.7209776308442548  0.2611152839833775  0.1706826786428605
  0.9414571018112686  0.0602688299006998  0.1692906521045658
  0.1039554829468464  0.4328597947821843  0.0096435186721986
  0.2276643905748535  0.5666526939005120  0.0029748854698416
  0.0606061213022365  0.5874990957694077  0.1666905829728351
  0.2857388575544267  0.4089166459496202  0.1684958354551994
  0.4243080103905869  0.4521820491568033  0.9969175871856342
  0.5567575290094510  0.5668419211447117  0.0041033696971398
  0.3989822783834191  0.6066505923747393  0.1682885348541064
  0.5983221123776690  0.4024333905412297  0.1693702764037891
  0.7774656024898486  0.4203252413581684  0.0097818201562566
  0.8921808292940214  0.5698306820603887  0.0060690986741869
  0.7384191977765386  0.5967029959071479  0.1631978273461391
  0.9445655605994994  0.3994048494448172  0.1573294326455676
  0.1061237226542817  0.7682558444410723  0.9922965759582814
  0.2304948143971352  0.8985737553099802  0.9852530259787529
  0.0439822485840849  0.9156451183202714  0.1689316953129141
  0.2818577237304476  0.7373125904805110  0.1644234037481382
  0.4418317239955574  0.7682523967429894  0.9949806303662005
  0.5483616339939495  0.9013901347514593  0.0057026734203298
  0.3895016089987667  0.9398280174532233  0.1537305651982177
  0.5903242151970083  0.7178908355749845  0.1598046213352727
  0.7804851697476070  0.7659257875839143  0.0079580150530539
  0.8915363897657314  0.9047112411527459  0.9829647591687579
  0.7175595130079423  0.9167578284028892  0.1712120302064513
  0.9458756791605093  0.7286629278975474  0.1609150125842914
  0.0969457404730227  0.1058135456661230  0.3395415389965612
  0.2495058911941498  0.2150655563028256  0.3416012153286587
  0.0646736089653605  0.2595099457299713  0.5115369247609441
  0.2832831768514416  0.0652635910193935  0.4982761070990415
  0.4268744413866598  0.1111779923574103  0.3284846352358950
  0.5632257123114890  0.2309544122375457  0.3332376146929206
  0.4009224145311897  0.2678060679871289  0.5014746396833117
  0.5949641199933560  0.0492944524425445  0.4994767584625086
  0.7745909084746827  0.0969651439703139  0.3337066422262455
  0.9062013868579260  0.2290174903019296  0.3229558637840153
  0.7265964590332907  0.2547137009619720  0.5174708525398015
  0.9363173247535392  0.0672470988713348  0.5159237452600822
  0.0982558436685831  0.4326890751388947  0.3524892261509555
  0.2260970728593224  0.5651821454459852  0.3288872318432535
  0.0678611470200574  0.6040044894066271  0.5056953730002706
  0.2627216484974130  0.3898294093245348  0.5027056655984230
  0.4483188280229425  0.4297085491599019  0.3419542787820938
  0.5734913600577798  0.5698354056641165  0.3323314703252733
  0.4008901426634912  0.6028950100822001  0.4927736609626303
  0.6265310031568108  0.4149130628430332  0.4965051599206715
  0.7845456233639302  0.4256393508710041  0.3269407025593905
  0.8982027856060082  0.5661481369152151  0.3413461760262499
  0.7382942773779261  0.5997152133941618  0.4965422504079812
  0.9448825453381390  0.4032774901351892  0.4981877718708272
  0.0905550078016222  0.7745921979775210  0.3317299384218484
  0.2272659813255697  0.8999133918186033  0.3365865443005027
  0.0694518971360972  0.9497333162154573  0.4937572640557050
  0.2555343699606425  0.7202568707679978  0.5028361520774920
  0.4194322532971118  0.7816412884085971  0.3292434749044860
  0.5438975686080310  0.8988550050272865  0.3307442975495330
  0.3878439523229226  0.9374794870174082  0.5210996904076928
  0.6016859240064467  0.7328392147335443  0.4842440954534126
  0.7934952856426133  0.7557355658546374  0.3115150067374683
  0.9002204429282804  0.8935315309088707  0.3322618903305574
  0.7260927918478863  0.9275338414711253  0.4743217061564398
  0.9295023482450611  0.7181945922916577  0.5090471307717047
  0.1191443704999300  0.0991945691207834  0.6603888266398499
  0.2428024485105612  0.2271789523338152  0.6762767939209581
  0.0643094186724327  0.2643154165910251  0.8411084758198831
  0.2710451369935459  0.0642411743652608  0.8527069783035447
  0.4309035691171935  0.1033415671012940  0.6765725160712708
  0.5654217934823678  0.2358016392349344  0.6582858826452349
  0.4093250063886735  0.2859332516301856  0.8560173475567636
  0.6009030540214130  0.0645230868472929  0.8344006992459726
  0.7661233374154943  0.0821609038992026  0.6768909508655117
  0.9054565070738319  0.2238303817968615  0.6740920134669491
  0.7187345561886208  0.2619561492274581  0.8348073910461135
  0.9423977263996196  0.0613788259555597  0.8274500081561782
  0.1093299823231366  0.4329636403587511  0.6701132514037954
  0.2187133091040319  0.5772792848637230  0.6714472344022510
  0.0747482239577110  0.6123547378510585  0.8360785714102112
  0.2736581830956832  0.4094558715676445  0.8192727997351312
  0.4389015847942707  0.4409608570856697  0.6586747024441552
  0.5778557608267424  0.5599256121387106  0.6691513791450574
  0.3934961700879163  0.5968917649873766  0.8186272182857983
  0.5962972604135942  0.4115060531002280  0.8420584918455096
  0.7689297971983838  0.4304363315500138  0.6679167792124129
  0.8928634307541469  0.5601242519402209  0.6668192946296676
  0.7391980588780632  0.6071197417479657  0.8435144109191671
  0.9402902717574878  0.3871833237848104  0.8254832981689667
  0.0913261630900626  0.7629117114796549  0.6609982609046620
  0.2354053265185330  0.8927097935963729  0.6705187663238602
  0.0666619907182440  0.9224542530627400  0.8322017302960233
  0.2688030959969321  0.7263272686010570  0.8244984253564068
  0.4481642251442720  0.7510209922206056  0.6548851941181125
  0.5600123376968621  0.8973103497566274  0.6624929310681428
  0.3993216685037843  0.9382127343477628  0.8325662682312115
  0.5999918833027180  0.7291605907055768  0.8408052816656818
  0.7629389559778742  0.7693053606776109  0.6588460817249563
  0.9066246490849863  0.8840294811523589  0.6555739972736594
  0.7159622297113721  0.9274084993827115  0.8329083206208576
  0.9382464883593619  0.7465496285569837  0.8310519545978635
 
  0.42383695E-03  0.20497010E-02  0.26449269E-02
 -0.16089498E-02 -0.12035799E-02  0.14197458E-02
  0.83931059E-03  0.21771928E-02 -0.11117644E-02
 -0.90130688E-03  0.75617684E-03  0.46118047E-03
  0.20519182E-02  0.20678959E-02 -0.30524540E-02
  0.43647322E-02 -0.57463790E-03  0.79382916E-03
  0.14477002E-02 -0.13572229E-02 -0.36344218E-03
 -0.10520755E-02  0.13994754E-02  0.11757763E-02
  0.10928945E-02  0.14057647E-02  0.17008391E-02
  0.57943273E-03 -0.38316061E-02 -0.17888688E-02
  0.14136989E-02  0.25694671E-02 -0.17399058E-02
 -0.15339515E-02  0.22700193E-03 -0.71691577E-03
  0.13727736E-02  0.24859604E-02 -0.22609286E-02
  0.18377873E-02  0.16872257E-02  0.58979075E-03
 -0.43826673E-02  0.43282637E-02 -0.26693158E-02
  0.70202496E-03 -0.18596291E-02 -0.19697102E-02
  0.67406158E-02  0.64072212E-03 -0.19317807E-03
 -0.22481618E-02  0.34534450E-02 -0.40609907E-02
  0.16053269E-02 -0.11002989E-02 -0.15986746E-02
  0.23580550E-02 -0.49535112E-03  0.31969051E-02
 -0.27374146E-02 -0.16159808E-02  0.28254084E-02
 -0.13428081E-02  0.29138419E-02 -0.21311357E-02
  0.53712565E-03 -0.83277071E-04 -0.83977059E-03
 -0.31530314E-02  0.53139495E-03  0.30999844E-02
  0.28138577E-02 -0.24155889E-02 -0.31908467E-02
 -0.48253679E-02 -0.14598928E-02  0.68992210E-03
  0.36391118E-02 -0.18879084E-02  0.58612524E-02
  0.34219075E-02 -0.16531880E-02 -0.54569504E-03
  0.11066780E-02  0.22543905E-02 -0.85292858E-03
  0.25743732E-03  0.91653321E-03 -0.13819238E-02
  0.21303676E-02  0.33624429E-02 -0.14911886E-02
  0.91880219E-03  0.52687208E-03 -0.13637900E-02
  0.87567585E-03  0.22428309E-02 -0.13031126E-02
 -0.21459989E-03  0.21352097E-02  0.54810728E-03
  0.30520579E-03 -0.23726657E-03  0.57619007E-02
 -0.59649667E-02 -0.28385763E-02  0.14415379E-02
  0.68110879E-03  0.88728941E-03 -0.26257254E-02
 -0.10637110E-02 -0.99381347E-03  0.55770584E-03
  0.57258705E-03  0.24900290E-02  0.64935396E-02
 -0.61655813E-03 -0.32258433E-02  0.16133050E-02
 -0.12264121E-02 -0.38561138E-02  0.87380966E-03
  0.52235833E-02 -0.13571848E-02  0.63747791E-03
 -0.73639873E-03 -0.13167616E-02  0.28598434E-02
 -0.18532786E-02 -0.28481264E-02  0.12651629E-02
 -0.88361205E-03 -0.24418111E-02  0.29638604E-02
  0.15683484E-02  0.20410361E-02  0.15546447E-02
 -0.36006788E-02 -0.32813162E-02 -0.28347674E-02
 -0.20403639E-02  0.10233280E-02 -0.21535289E-02
 -0.10624631E-03 -0.36714915E-03  0.34707502E-03
  0.21901929E-02 -0.23596382E-02 -0.60256363E-02
 -0.14307456E-02  0.21728453E-02 -0.15545447E-02
  0.25207998E-02 -0.24527620E-02  0.40030402E-02
 -0.21401124E-02  0.47386015E-02 -0.21108463E-03
  0.61545370E-02 -0.66451712E-02 -0.15860539E-03
 -0.19159956E-02  0.46330165E-04  0.13988038E-02
  0.90056706E-03 -0.45521527E-02  0.12753396E-01
 -0.92740761E-02 -0.28174968E-02 -0.43123933E-02
  0.30133664E-02  0.17593140E-03 -0.44410246E-03
  0.25038844E-02 -0.48887746E-02  0.84904931E-02
 -0.31369731E-02  0.92021852E-02 -0.63907073E-02
  0.91488063E-02 -0.13620611E-01 -0.15481525E-02
  0.62392559E-02 -0.39496875E-02  0.52568352E-02
  0.13282368E-02  0.88751816E-03 -0.47554418E-02
 -0.26567051E-02  0.38533661E-02  0.53395704E-02
  0.13242442E-03 -0.10084988E-01  0.83329491E-02
  0.45163740E-02  0.27828557E-02 -0.22235048E-02
  0.55144346E-02 -0.12406250E-02 -0.47070852E-04
 -0.12834372E-02 -0.35161350E-02  0.70587748E-02
 -0.87072516E-02 -0.12077864E-01 -0.10346319E-01
  0.20914998E-02  0.46139663E-02  0.34113476E-02
  0.36881900E-02 -0.14561123E-02  0.51101006E-02
 -0.10168089E-01  0.11965956E-01  0.72006087E-02
  0.77100627E-02  0.56724816E-02 -0.12224189E-01
 -0.19814443E-02  0.11339315E-01 -0.36945769E-02
  0.59894896E-03  0.49175943E-02  0.99387638E-02
 -0.30593182E-02  0.35820857E-02 -0.44114868E-02
 -0.66381925E-02  0.41354836E-02  0.37211273E-02
  0.57255908E-02  0.37165120E-02 -0.65909384E-02
 -0.10537542E-02 -0.94020392E-03 -0.29715811E-02
 -0.66790140E-02 -0.72143790E-02  0.15981120E-01
  0.67990873E-04  0.32794132E-02 -0.62535614E-02
 -0.40012031E-02  0.10633250E-01 -0.37206100E-02
 -0.50460792E-02  0.69631840E-03 -0.13474069E-01
 -0.29571408E-02 -0.52669651E-02  0.20084364E-02
 -0.38937999E-02  0.57944410E-03 -0.97847621E-02
  0.12022928E-01  0.10373838E-02 -0.31224037E-03
 -0.14422612E-02  0.11962523E-01 -0.14470428E-02
 -0.30851644E-02 -0.50872442E-02  0.23735161E-02
  0.52860564E-02 -0.51586517E-02  0.29662653E-02
 -0.21800982E-02  0.14861527E-02  0.60481516E-02
  0.29979540E-03 -0.43892074E-02 -0.10386687E-01
  0.34210030E-02  0.13020244E-01 -0.32113397E-03
 -0.49494498E-02 -0.57789117E-02 -0.64831359E-02
 -0.14920957E-01  0.11853793E-02  0.11822313E-01
 -0.18938198E-02  0.31281791E-02  0.56069238E-02
  0.55609252E-02  0.67271727E-02 -0.48173863E-02
 -0.10416589E-01  0.97468292E-03  0.36667270E-02
 -0.11797960E-01  0.21468724E-02  0.46951171E-02
 -0.12486954E-01 -0.18122834E-02  0.78112313E-02
 -0.49276974E-02  0.11171757E-02 -0.34764148E-02
  0.62774688E-02 -0.37625297E-02  0.16091562E-03
 -0.59407273E-02 -0.71958157E-02  0.10191175E-01
  0.64197704E-02 -0.72159440E-02 -0.11373084E-01
  0.66939655E-02 -0.62602850E-02 -0.17130875E-02
  0.35685559E-02  0.22111790E-02  0.16444159E-04
  0.84225607E-02  0.21705899E-02 -0.39920712E-02
 -0.37622322E-02 -0.39254258E-03  0.55284246E-02
 -0.11874663E-02 -0.40482805E-02 -0.21560118E-02
  0.95060838E-02 -0.35820572E-02 -0.15307991E-01
  0.91553285E-02 -0.23232927E-02 -0.30666570E-02
  0.58712753E-02 -0.33741692E-02 -0.49239755E-02
 -0.57560707E-02  0.59585838E-02  0.53139525E-02
  0.76700219E-02 -0.69255933E-03 -0.62918578E-02
 -0.55631574E-02  0.22076615E-03  0.80482368E-02
 -0.37571486E-02  0.82815053E-02  0.55339643E-02
  0.38887306E-02 -0.12420246E-01  0.22327439E-02
 -0.46409418E-02 -0.81167267E-02 -0.43502592E-02
 -0.46093230E-02 -0.91821585E-02 -0.83892243E-02
  0.82429395E-04  0.77110551E-02  0.38707810E-02
 -0.18674029E-02  0.11133398E-01  0.61092659E-04
  0.13341574E-02 -0.27692357E-02 -0.75175351E-03
 -0.17377052E-02  0.30245443E-02 -0.46629426E-02
 -0.67644863E-02 -0.27628866E-02 -0.75472278E-02
 -0.14102754E-02 -0.14122940E-01 -0.30479677E-02
  0.52698974E-02  0.26879310E-02 -0.46900475E-02
  0.33903443E-02 -0.91365215E-02 -0.65380001E-02
 -0.10340612E-01  0.36521116E-02  0.11479044E-01
 -0.72363228E-02 -0.71411551E-02  0.27885364E-02
  0.95530979E-02  0.14169283E-01  0.34499730E-02
 -0.90023261E-03 -0.62992814E-02  0.50258703E-02
 -0.54575049E-02 -0.24207170E-02  0.96555089E-03
  0.26702086E-02 -0.11269991E-01  0.93498637E-02
 -0.44173874E-02 -0.18402777E-02  0.32747057E-02
  0.20790403E-02 -0.57960850E-02 -0.99692865E-02
  0.51862605E-02 -0.40345884E-02 -0.36999386E-02
 -0.10862718E-01 -0.39128274E-02  0.99135474E-02
 -0.20718843E-02  0.76381532E-02 -0.49965916E-02
  0.41267328E-02 -0.49103249E-02  0.19706811E-02
 -0.12247343E-02  0.26095952E-02 -0.50005477E-04
  0.56235780E-04 -0.62989505E-02 -0.91474124E-02
 -0.66943221E-02  0.12423106E-02  0.36743953E-02
 -0.96906214E-02  0.39336782E-02 -0.14516800E-02
 -0.22930716E-02  0.98280790E-02 -0.32983614E-02
 -0.93753622E-02  0.95934895E-02  0.57188983E-02
 -0.74212324E-02  0.69260515E-02  0.12289861E-01
  0.24266686E-02 -0.15640173E-01 -0.85670259E-02
  0.49312840E-02 -0.40526344E-03 -0.13048199E-01
 -0.98592603E-02  0.83601695E-04 -0.36335384E-02
 -0.24324233E-02 -0.25359157E-02 -0.82046190E-02
  0.18670383E-02  0.40271956E-02  0.78018741E-03
 -0.46025394E-03  0.98197208E-02  0.14180724E-01
 -0.92792581E-03  0.47722980E-02 -0.75086580E-02
  0.20529302E-02  0.50636539E-02  0.10671862E-03
 -0.77401179E-02  0.31408450E-02  0.49059824E-02
 -0.26480685E-02 -0.46633817E-02 -0.63243304E-02
 -0.99088765E-02 -0.95880189E-02 -0.95049144E-02
  0.22352877E-02 -0.24402054E-02 -0.35410203E-02
  0.11296161E-01  0.66586648E-02 -0.92627456E-03
 -0.93307027E-02 -0.14528482E-02  0.44331869E-03
  0.64874207E-02 -0.63864641E-02 -0.28561791E-02
 -0.28414115E-02  0.31358310E-02 -0.31079255E-02
  0.73081347E-02 -0.36917433E-02 -0.24022401E-02
 
           1
   1.00000000000000     
  0.80511016E+00  0.16438098E-02 -0.15404613E-03  0.00000000E+00
  0.99420395E+00  0.99903787E+00  0.99471382E+00
  0.16099081E+00  0.16010512E+00  0.17917089E+00
  0.49811419E+00  0.18392450E+00  0.16159303E+00
  0.65887215E+00  0.99488644E+00  0.99404411E+00
  0.82886869E+00  0.15509170E+00  0.15887208E+00
  0.36128861E-02  0.33439203E+00  0.98172650E-03
  0.16842500E+00  0.49683112E+00  0.17992629E+00
  0.32685783E+00  0.33571074E+00  0.99860650E+00
  0.49678462E+00  0.51517197E+00  0.16317552E+00
  0.66203954E+00  0.33775319E+00  0.12096389E-01
  0.84410465E+00  0.50057951E+00  0.17225456E+00
  0.99587959E+00  0.66519865E+00  0.99685706E+00
  0.16863065E+00  0.84816192E+00  0.15988188E+00
  0.34199806E+00  0.66696980E+00  0.99874906E+00
  0.48757814E+00  0.82569501E+00  0.16655747E+00
  0.67263463E+00  0.66379149E+00  0.99864892E+00
  0.84288594E+00  0.84645433E+00  0.15749082E+00
  0.98549665E+00  0.66447342E-02  0.34228635E+00
  0.17923760E+00  0.16819893E+00  0.50141256E+00
  0.33787781E+00  0.56103657E-03  0.33672392E+00
  0.49582394E+00  0.16156126E+00  0.50094117E+00
  0.65385672E+00  0.99589859E+00  0.32253584E+00
  0.83456395E+00  0.16003484E+00  0.51040518E+00
  0.99798917E+00  0.33471547E+00  0.32691552E+00
  0.16102376E+00  0.49978151E+00  0.51161569E+00
  0.34066557E+00  0.34052936E+00  0.34023120E+00
  0.51479814E+00  0.50832205E+00  0.50625536E+00
  0.66645392E+00  0.33680255E+00  0.32775872E+00
  0.83751057E+00  0.49120047E+00  0.49822029E+00
  0.99723401E+00  0.66627205E+00  0.33444133E+00
  0.15660073E+00  0.83754624E+00  0.49056847E+00
  0.32432342E+00  0.66905796E+00  0.33948456E+00
  0.49262177E+00  0.83195006E+00  0.49396955E+00
  0.67688445E+00  0.66933431E+00  0.32831705E+00
  0.83881683E+00  0.83801186E+00  0.49033742E+00
  0.82653400E-02  0.99468932E+00  0.66781204E+00
  0.16678881E+00  0.17070908E+00  0.84317874E+00
  0.32364649E+00  0.99862111E+00  0.67781420E+00
  0.50788299E+00  0.16810774E+00  0.82772637E+00
  0.67012822E+00  0.98558592E+00  0.65693563E+00
  0.83328568E+00  0.16084655E+00  0.83978530E+00
  0.50810146E-02  0.32827052E+00  0.66428500E+00
  0.16106920E+00  0.50077637E+00  0.84459663E+00
  0.33873859E+00  0.32841675E+00  0.66657500E+00
  0.49655998E+00  0.50740984E+00  0.83706463E+00
  0.66009680E+00  0.33323662E+00  0.66510522E+00
  0.83072178E+00  0.49136433E+00  0.84090014E+00
  0.99538593E+00  0.66940148E+00  0.67456210E+00
  0.17098627E+00  0.82702978E+00  0.82483130E+00
  0.33191512E+00  0.66697026E+00  0.66603024E+00
  0.50159895E+00  0.83523495E+00  0.82957355E+00
  0.67324949E+00  0.66909175E+00  0.65333911E+00
  0.82715596E+00  0.83731199E+00  0.82156773E+00
  0.35074828E+00  0.54881308E-02  0.99405162E+00
  0.12144639E+00  0.87697620E-01  0.43691692E-02
  0.22990336E+00  0.23863076E+00  0.16862055E-03
  0.68989959E-01  0.27541286E+00  0.15734663E+00
  0.26626143E+00  0.67618303E-01  0.18705994E+00
  0.43324303E+00  0.10035506E+00  0.23625261E-01
  0.56551625E+00  0.22828769E+00  0.99111458E+00
  0.39703452E+00  0.27178341E+00  0.16948032E+00
  0.61803670E+00  0.72950123E-01  0.16451767E+00
  0.77724554E+00  0.86923961E-01  0.99453431E+00
  0.89160035E+00  0.22268590E+00  0.41886931E-02
  0.72098676E+00  0.26041695E+00  0.17153977E+00
  0.94176985E+00  0.60461545E-01  0.16906195E+00
  0.10433733E+00  0.43277391E+00  0.96386771E-02
  0.22757551E+00  0.56640921E+00  0.37009243E-02
  0.60003144E-01  0.58666273E+00  0.16562640E+00
  0.28588370E+00  0.40923615E+00  0.16884671E+00
  0.42456339E+00  0.45208123E+00  0.99744319E+00
  0.55605348E+00  0.56767047E+00  0.48439970E-02
  0.39951618E+00  0.60704341E+00  0.16703120E+00
  0.59818495E+00  0.40321857E+00  0.16899027E+00
  0.77750709E+00  0.42066576E+00  0.10804084E-01
  0.89196900E+00  0.57007871E+00  0.56153498E-02
  0.73795955E+00  0.59698933E+00  0.16358057E+00
  0.94496204E+00  0.39966222E+00  0.15665151E+00
  0.10605075E+00  0.76819074E+00  0.99199093E+00
  0.23003230E+00  0.89807417E+00  0.98689678E+00
  0.43986968E-01  0.91587220E+00  0.16828848E+00
  0.28158070E+00  0.73804888E+00  0.16404072E+00
  0.44148231E+00  0.76830060E+00  0.99359474E+00
  0.54815685E+00  0.90102541E+00  0.59092536E-02
  0.38923198E+00  0.93986813E+00  0.15272414E+00
  0.59115675E+00  0.71796271E+00  0.15977251E+00
  0.78038534E+00  0.76675413E+00  0.78091777E-02
  0.89132274E+00  0.90435896E+00  0.98320889E+00
  0.71792553E+00  0.91640064E+00  0.17151713E+00
  0.94572472E+00  0.72876583E+00  0.16153710E+00
  0.96966484E-01  0.10550962E+00  0.33847320E+00
  0.24974283E+00  0.21596716E+00  0.34156818E+00
  0.64330864E-01  0.25910977E+00  0.51087009E+00
  0.28224998E+00  0.65345619E-01  0.49949211E+00
  0.42674332E+00  0.11139460E+00  0.32906134E+00
  0.56361080E+00  0.23142026E+00  0.33274212E+00
  0.40020112E+00  0.26787352E+00  0.50185179E+00
  0.59414718E+00  0.49443070E-01  0.49995968E+00
  0.77372624E+00  0.96839608E-01  0.33451008E+00
  0.90586017E+00  0.22909483E+00  0.32259829E+00
  0.72703113E+00  0.25445319E+00  0.51748740E+00
  0.93590593E+00  0.66748803E-01  0.51697197E+00
  0.98700355E-01  0.43218943E+00  0.35131943E+00
  0.22656057E+00  0.56474868E+00  0.32871103E+00
  0.68108260E-01  0.60415762E+00  0.50569706E+00
  0.26330488E+00  0.38997974E+00  0.50229506E+00
  0.44805831E+00  0.42968135E+00  0.34252291E+00
  0.57340912E+00  0.56955508E+00  0.33210971E+00
  0.40154838E+00  0.60264700E+00  0.49119914E+00
  0.62716496E+00  0.41475222E+00  0.49618974E+00
  0.78495217E+00  0.42540573E+00  0.32643424E+00
  0.89780423E+00  0.56656072E+00  0.34189275E+00
  0.73882539E+00  0.59966728E+00  0.49589509E+00
  0.94449733E+00  0.40329276E+00  0.49901558E+00
  0.90294874E-01  0.77516564E+00  0.33229914E+00
  0.22753521E+00  0.89905337E+00  0.33681620E+00
  0.69130506E-01  0.94917126E+00  0.49330981E+00
  0.25521516E+00  0.71962104E+00  0.50197327E+00
  0.41943799E+00  0.78217524E+00  0.32964161E+00
  0.54376830E+00  0.89962593E+00  0.33075058E+00
  0.38793633E+00  0.93728774E+00  0.52102237E+00
  0.60156561E+00  0.73304864E+00  0.48376448E+00
  0.79302687E+00  0.75554423E+00  0.31073873E+00
  0.90012274E+00  0.89255358E+00  0.33194839E+00
  0.72645772E+00  0.92771999E+00  0.47383931E+00
  0.92973708E+00  0.71756195E+00  0.50837466E+00
  0.11842835E+00  0.99447422E-01  0.66156952E+00
  0.24230134E+00  0.22668444E+00  0.67656361E+00
  0.64970974E-01  0.26529660E+00  0.84146333E+00
  0.27098278E+00  0.63804978E-01  0.85322392E+00
  0.43052566E+00  0.10317393E+00  0.67667183E+00
  0.56560665E+00  0.23502126E+00  0.65924757E+00
  0.40901912E+00  0.28580581E+00  0.85635417E+00
  0.60104700E+00  0.64121745E-01  0.83337530E+00
  0.76648245E+00  0.81881547E-01  0.67651039E+00
  0.90470430E+00  0.22355940E+00  0.67511168E+00
  0.71859112E+00  0.26248505E+00  0.83429346E+00
  0.94268346E+00  0.61038825E-01  0.82765270E+00
  0.10924518E+00  0.43314434E+00  0.67010811E+00
  0.21871718E+00  0.57684311E+00  0.67050637E+00
  0.74284680E-01  0.61244074E+00  0.83645651E+00
  0.27298717E+00  0.40972822E+00  0.81912349E+00
  0.43874284E+00  0.44164139E+00  0.65833545E+00
  0.57720660E+00  0.56058988E+00  0.66973960E+00
  0.39298231E+00  0.59737133E+00  0.81989131E+00
  0.59646524E+00  0.41042306E+00  0.84117732E+00
  0.76927126E+00  0.43040829E+00  0.66657469E+00
  0.89218073E+00  0.56013001E+00  0.66644556E+00
  0.73902962E+00  0.60694413E+00  0.84267051E+00
  0.94041957E+00  0.38746219E+00  0.82556355E+00
  0.91294328E-01  0.76359168E+00  0.66245684E+00
  0.23534109E+00  0.89304025E+00  0.66974645E+00
  0.66804164E-01  0.92280489E+00  0.83221271E+00
  0.26826714E+00  0.72654473E+00  0.82500304E+00
  0.44798084E+00  0.75069807E+00  0.65423470E+00
  0.55932616E+00  0.89664639E+00  0.66151529E+00
  0.39947644E+00  0.93804377E+00  0.83220205E+00
  0.60077411E+00  0.72962171E+00  0.84071001E+00
  0.76229285E+00  0.76920472E+00  0.65889168E+00
  0.90707385E+00  0.88358727E+00  0.65528022E+00
  0.71576549E+00  0.92762563E+00  0.83258865E+00
  0.93875253E+00  0.74629402E+00  0.83080487E+00
  0.19967830E-04  0.14418766E-03  0.26867800E-03
 -0.11617142E-03 -0.85582428E-04  0.15090969E-03
  0.55822918E-04  0.15655315E-03 -0.12098556E-03
 -0.62102910E-04  0.51839264E-04  0.39586647E-04
  0.14276104E-03  0.13837282E-03 -0.32414674E-03
  0.30460189E-03 -0.36547717E-04  0.88239992E-04
  0.10120050E-03 -0.93117893E-04 -0.29343085E-04
 -0.74948396E-04  0.90811718E-04  0.11930778E-03
  0.74452680E-04  0.10605870E-03  0.16523598E-03
  0.39848551E-04 -0.26355179E-03 -0.17199448E-03
  0.10013071E-03  0.17769232E-03 -0.17719742E-03
 -0.11209678E-03  0.12290859E-04 -0.75401362E-04
  0.96074172E-04  0.17805586E-03 -0.22733248E-03
  0.13379800E-03  0.11858650E-03  0.63709301E-04
 -0.30778259E-03  0.29636172E-03 -0.27162031E-03
  0.50157141E-04 -0.13180965E-03 -0.20664834E-03
  0.46960761E-03  0.52699361E-04 -0.18576900E-04
 -0.16344335E-03  0.23964144E-03 -0.41485173E-03
  0.11295795E-03 -0.75020881E-04 -0.16594381E-03
  0.16516364E-03 -0.34339018E-04  0.33128866E-03
 -0.19063480E-03 -0.11082164E-03  0.29360616E-03
 -0.95541353E-04  0.20142525E-03 -0.22193256E-03
  0.40680645E-04 -0.10150329E-04 -0.82844291E-04
 -0.22020559E-03  0.40525831E-04  0.31332916E-03
  0.19050634E-03 -0.17008932E-03 -0.32559579E-03
 -0.33243769E-03 -0.98647716E-04  0.72549239E-04
  0.25707211E-03 -0.12896736E-03  0.61089968E-03
  0.23601452E-03 -0.11189778E-03 -0.63390654E-04
  0.79422605E-04  0.15290102E-03 -0.92989671E-04
  0.14672464E-04  0.64324460E-04 -0.14306988E-03
  0.14574449E-03  0.23832501E-03 -0.16023158E-03
  0.62148251E-04  0.37683574E-04 -0.13632051E-03
  0.61196779E-04  0.15458637E-03 -0.13990809E-03
 -0.15083521E-04  0.14782069E-03  0.60029525E-04
  0.25600345E-04 -0.70933020E-05  0.59159842E-03
 -0.41512937E-03 -0.19827725E-03  0.14461734E-03
  0.44343743E-04  0.65913812E-04 -0.26575332E-03
 -0.74877115E-04 -0.73259838E-04  0.59001075E-04
  0.43734657E-04  0.17186313E-03  0.66710881E-03
 -0.37906289E-04 -0.22609962E-03  0.16783105E-03
 -0.82586594E-04 -0.26994339E-03  0.98028997E-04
  0.36148046E-03 -0.94708522E-04  0.65440858E-04
 -0.56026007E-04 -0.92107873E-04  0.29946928E-03
 -0.12952307E-03 -0.20314522E-03  0.12577172E-03
 -0.61152863E-04 -0.16514870E-03  0.30996341E-03
  0.10337683E-03  0.13805851E-03  0.15356133E-03
 -0.25003629E-03 -0.22869241E-03 -0.28629867E-03
 -0.13989047E-03  0.76564512E-04 -0.21823644E-03
 -0.38271634E-05 -0.23603696E-04  0.29823940E-04
  0.15248303E-03 -0.16056160E-03 -0.61170522E-03
 -0.99597634E-04  0.15276005E-03 -0.15916433E-03
  0.17973668E-03 -0.16620534E-03  0.40449373E-03
 -0.14876531E-03  0.33320559E-03 -0.27373667E-04
  0.43834035E-03 -0.45468621E-03 -0.19356749E-04
 -0.83776339E-04  0.29948992E-05  0.14071246E-03
  0.74706508E-04 -0.29836792E-03  0.12824881E-02
 -0.66220189E-03 -0.16914358E-03 -0.49271085E-03
  0.20261743E-03  0.30136964E-04  0.77815614E-05
  0.16318981E-03 -0.34717383E-03  0.93039397E-03
 -0.22886981E-03  0.62009844E-03 -0.68624977E-03
  0.64784528E-03 -0.96178633E-03 -0.14177700E-03
  0.46032741E-03 -0.28688432E-03  0.56540673E-03
  0.11038078E-03  0.84015314E-04 -0.49300111E-03
 -0.21095785E-03  0.24228129E-03  0.55245633E-03
 -0.19947180E-06 -0.69333067E-03  0.86959695E-03
  0.33905953E-03  0.16943631E-03 -0.19819448E-03
  0.37298309E-03 -0.88289282E-04  0.11420337E-04
 -0.10515998E-03 -0.24882031E-03  0.70805849E-03
 -0.58527381E-03 -0.85817523E-03 -0.10736980E-02
  0.17751794E-03  0.31704567E-03  0.32518314E-03
  0.25806932E-03 -0.87133177E-04  0.49767912E-03
 -0.74662275E-03  0.79612461E-03  0.78112969E-03
  0.55561800E-03  0.37148671E-03 -0.12868608E-02
 -0.13322175E-03  0.78417306E-03 -0.38129361E-03
  0.29191375E-04  0.32021149E-03  0.10310539E-02
 -0.21614365E-03  0.26849300E-03 -0.41040055E-03
 -0.44289261E-03  0.28228177E-03  0.37686051E-03
  0.41590053E-03  0.24135127E-03 -0.70776192E-03