CONTCAR-jianxi                          
   1.00000000000000     
    14.4746026128251408   -0.0030957227831611    0.0000088347402303
    -0.0030551291343910   14.6066467328938430   -0.0000522910293426
     0.0000057658895130   -0.0000350004245160    9.7872285547428870
   Sn   O    Ti
    54   108     1
Direct
  0.9774491595762248  0.9953310300017002  0.9874363336309760
  0.1669237459166591  0.1752855124812997  0.1647265362186618
  0.3196780958316394  0.9811586597574932  0.0001821655383839
  0.4833581870539954  0.1456284177808276  0.1668145601688553
  0.6756738160103565  0.0228039600561064  0.9926807071702943
  0.8616144286896271  0.1869993397316007  0.1685546542409028
  0.0294454677381726  0.3658718346768937  0.9991092904698771
  0.2196258677742057  0.5266259645473108  0.1675675599166321
  0.3305085906034111  0.3369771675199339  0.9981788833517433
  0.5098667690647238  0.4791394273699183  0.1673592197395243
  0.6601042394132653  0.3048532057919911  0.9987637049087404
  0.8176878836806893  0.4903317701221876  0.1675488130228874
  0.9733948872870776  0.6758440895621264  0.9951119937169325
  0.1659019001494582  0.7158651447941012  0.1695232575951949
  0.3850110967409245  0.6589264508581177  0.9812342624774224
  0.5166183218097847  0.8694842075409089  0.1650720545341877
  0.6508065767195165  0.6705647495610499  0.0023475202275452
  0.7906782524207022  0.8454684281939959  0.1670264965218754
  0.9785767075068328  0.9933714070908988  0.3459956578951293
  0.1643496877558747  0.1563806334276296  0.4911472101444442
  0.3203474195236048  0.9827708213087354  0.3321253735130769
  0.4840878320346130  0.1641704290029314  0.5030291286718829
  0.6773254754750110  0.0196381830211473  0.3385382153228997
  0.8521151995471746  0.1814926628960454  0.5007930561217625
  0.0266729182541646  0.3633895043417125  0.3311024732527345
  0.1682187373463159  0.5223053809398588  0.4938333191834432
  0.3341167439200643  0.3351272152741859  0.3327269919638388
  0.5103230683577795  0.4823168719068108  0.5089681941771828
  0.6595069289297500  0.3017323587261612  0.3309837846661265
  0.8205093605397944  0.4944981664792044  0.5002685422862758
  0.9714587240938768  0.6751777672074730  0.3395805292955784
  0.1619661485206092  0.8184527531842990  0.5005280209828870
  0.3862037597439945  0.6617593253600342  0.3513952490487033
  0.5103318014453059  0.8395160729669816  0.5085458357197138
  0.6504721653253523  0.6719864427807153  0.3316317075123253
  0.8201514385585562  0.8360195950085181  0.5046197538184427
  0.0152664944641862  0.9892490117992514  0.6648009716919623
  0.1663574460860397  0.1573328054511404  0.8355782438348541
  0.3207280785923547  0.9975716654014285  0.6674074411141816
  0.4793368513434119  0.1620955299093866  0.8338204485465233
  0.6814716431982246  0.0246061962638198  0.6644662926008380
  0.8558006351247665  0.1864664615555592  0.8318059544718229
  0.0213274276908226  0.3423205451307422  0.6638437564884319
  0.1694409082168209  0.5263931404774156  0.8386376254389687
  0.3237945111228856  0.3411415991666942  0.6662175062587234
  0.5148508776998503  0.4790247867073640  0.8275247436568417
  0.6656839850440772  0.3011755336793747  0.6683271824680682
  0.8251003524467859  0.4962133098285319  0.8353686208617146
  0.9798442130380741  0.6619278837087784  0.6668537995581062
  0.1608404221524555  0.8192964145889065  0.8347813796593769
  0.3361226223936585  0.6778358625184669  0.6687712612279323
  0.5076357170831953  0.8411404308844949  0.8283649781768743
  0.6627063444938167  0.6578203973570833  0.6689200406717163
  0.8195932418112100  0.8354332864671136  0.8289893131258810
  0.1030633632366049  0.0902615655349523  0.0045338227598923
  0.2327970414833899  0.2260293106673309  0.9983088478548863
  0.0837366380959110  0.2883089899741155  0.1644489792781397
  0.2538205080497467  0.0362469369498999  0.1664884571289499
  0.4371459168504950  0.0701297403341945  0.9990645314125222
  0.5396936508611427  0.2194174065715897  0.0007475990215548
  0.3895393510087880  0.2566014440460819  0.1607103627638307
  0.6039003130062133  0.0685379773262918  0.1661689017294904
  0.8007854877476881  0.1012560881172378  0.9864150597546586
  0.9183136230880402  0.2434463860190694  0.0024657096374972
  0.7192356697191334  0.2327295829562635  0.1637713956553500
  0.9313437217560249  0.0662582030216796  0.1679844386641676
  0.1263127122161256  0.4647729284277439  0.0156529693533370
  0.2530114304386901  0.5899465626263944  0.9896040461005240
  0.0741748278498507  0.6143778678449681  0.1634388241793564
  0.2780662470625165  0.4064742135857877  0.1690115818684670
  0.4399222709256180  0.4238519364795402  0.9978481652695137
  0.5723320311785707  0.5530544780235591  0.9954746214363966
  0.4290968547697283  0.5985151736386893  0.1645378560309358
  0.6064961985056099  0.3753085269694623  0.1641538905420944
  0.7702606196642277  0.4183454286671764  0.0009667248124322
  0.8925424963146975  0.5590726221332586  0.0053034492607256
  0.7233590105209078  0.6070683335944889  0.1673423768428982
  0.9390348540336280  0.3931516744768053  0.1647220000061396
  0.0937683236266176  0.7538443275576083  0.0035987629164277
  0.2151546625468143  0.8805816951507457  0.0090884277756525
  0.0268221234401120  0.9332362276395906  0.1678745945053806
  0.3088668052897687  0.7162595553766696  0.1668213127999060
  0.4534028641827050  0.7825896432965687  0.9972278748213922
  0.5670425131951415  0.9239070430617521  0.9925091007800866
  0.3878214427569101  0.9222357691040017  0.1720276383477982
  0.5955418874706954  0.7430353510423370  0.1657700587262230
  0.7452275288964527  0.7806009351211429  0.9943157620928842
  0.8728641866928026  0.8992829027257722  0.9998124624314773
  0.7243392554230870  0.9583235138767672  0.1630017380244340
  0.9071355552259291  0.7278551224275921  0.1656145384391519
  0.1011849570143785  0.0925732804905388  0.3323223467413731
  0.2364854215924962  0.2255997642368557  0.3297491824860602
  0.0790190457814879  0.2778041274279848  0.4927443987215687
  0.2588929221622382  0.0498391496208455  0.4888419281941574
  0.4338857791448002  0.0778989009606269  0.3375871475083132
  0.5373452400465965  0.2242589171831543  0.3308976046410267
  0.3790290321545490  0.2649442454909060  0.5000912845347889
  0.6179353376428016  0.0934051368285552  0.4937466038871613
  0.7992773992171275  0.0997773162295271  0.3461633400362480
  0.9126258095603110  0.2485174488621524  0.3384837716060287
  0.7329280854858915  0.2690547517808750  0.4960746871989722
  0.9498062940062836  0.0713465848911767  0.5115757122033696
  0.1216849137591367  0.4636558764094492  0.3173769150922266
  0.2545382669525719  0.5886730032158021  0.3441135087387576
  0.0569459952072479  0.6165286778340313  0.5018709304759479
  0.2669137177059879  0.4102969837122714  0.4917740937513344
  0.4415713970412969  0.4249634659575935  0.3327277247326888
  0.5689521323428466  0.5553164501381972  0.3387036092731168
  0.4114256525624925  0.5944282981432226  0.5231325956023111
  0.6033618483243494  0.3735745542034949  0.4986613070260654
  0.7694591605476999  0.4164746430500691  0.3327316297407187
  0.8924835441688748  0.5584479454410350  0.3310388040158048
  0.7276374431412012  0.6047035709670799  0.4972959484404754
  0.9500650768187979  0.4051083832260294  0.5007263772830614
  0.0943282463011792  0.7533569857945176  0.3361076392316183
  0.2197060292299014  0.8843121569188214  0.3250386144069503
  0.0609781536648545  0.9254851570845479  0.4860292984887449
  0.2782278135884240  0.7352617891498631  0.4951845008149409
  0.4562352113496557  0.7811919420303415  0.3365018958675778
  0.5679444651398162  0.9239969441286912  0.3412597295571312
  0.4015753071034843  0.9364180592288022  0.5021266468177820
  0.5897633903198850  0.7218473761751857  0.5096743887708560
  0.7456153615307514  0.7808703864867266  0.3411596286935517
  0.8712485707264167  0.9011380520461095  0.3358546126227093
  0.7323830506683342  0.9514516804969156  0.5046464047691781
  0.9149612823879425  0.7325171628448953  0.5040134126662654
  0.1066816007551128  0.1006251766709950  0.6637506267421268
  0.2248191517731004  0.2326142481581027  0.6665376876242836
  0.0762817926903706  0.2779568976862504  0.8364638124873883
  0.2527468778472641  0.0449361219996135  0.8420509073332726
  0.4225909519103202  0.0955544421606822  0.6689036698371813
  0.5342746890360695  0.2403457597731974  0.6696894581935015
  0.3798672801096436  0.2662836166135723  0.8353234588692459
  0.6149031126762893  0.0884326463910491  0.8352920121586200
  0.7721570446736136  0.1330004172407856  0.6662705733002371
  0.9093223053398823  0.2504642860836668  0.6605791525740193
  0.7341930037901765  0.2658005394305495  0.8383681046617473
  0.9556823468490514  0.0772527117486040  0.8222022233683385
  0.1136983986899709  0.4556932613749946  0.6668741936639255
  0.2306891043824882  0.5840712836058235  0.6677124962069843
  0.0555903884100716  0.6163347934291397  0.8323493221217630
  0.2642241991185735  0.4092109998566161  0.8387209374322048
  0.4364280172121481  0.4239702033819103  0.6726348547516591
  0.5887854050924930  0.5374098731083385  0.6698461997066676
  0.4106631241995490  0.5911445744687234  0.8115633530229276
  0.6042821155703461  0.3703542905415143  0.8360585612074530
  0.7768483464116490  0.4192676722274461  0.6706662596699948
  0.8884108103780012  0.5585181421306999  0.6658313102023241
  0.7272686819050053  0.6034689754348359  0.8397423432604481
  0.9538862703871872  0.4067629930682227  0.8307239427889725
  0.0965733669147358  0.7613143978401220  0.6683165409399131
  0.2043634084921324  0.9035942068004530  0.6656530590599090
  0.0560238979227014  0.9237081898793412  0.8404922397195673
  0.2779336989239932  0.7344397817882363  0.8402907160071720
  0.4369832552485031  0.7761122166403700  0.6679497102256065
  0.5692190386688983  0.9214029899614209  0.6687516366246191
  0.3970701327744657  0.9385877204882677  0.8294573523392957
  0.5875223665855708  0.7241209551279928  0.8282279508561273
  0.7543476573932499  0.7692539660362776  0.6662170160039529
  0.9068249199136442  0.8806229471399079  0.6656384657611771
  0.7350973256371827  0.9527079450982993  0.8249553470768225
  0.9141969894853748  0.7308343012278361  0.8314657183814353
  0.1557288538032128  0.9300677628328737  0.1648937974168421
 
  0.55126735E-03 -0.29917451E-02  0.20500529E-03
 -0.22798243E-02  0.17895011E-02 -0.31073452E-03
 -0.79175359E-03 -0.15940746E-02 -0.56001436E-02
  0.88421782E-03 -0.10825536E-02  0.57925793E-03
  0.26634404E-02 -0.20889470E-02  0.80035187E-03
 -0.42203834E-02 -0.33312325E-02  0.44848706E-05
 -0.34052393E-02 -0.24775222E-02 -0.10509470E-03
 -0.40019857E-02 -0.60175380E-02 -0.75468383E-03
  0.30412139E-02  0.91901434E-03 -0.15952943E-02
  0.39728946E-04  0.67477664E-02 -0.54262267E-03
 -0.56214639E-02  0.15612160E-02  0.32452512E-02
  0.55856858E-02 -0.77249679E-04 -0.52956190E-03
  0.11992435E-02 -0.34327282E-02  0.28101692E-02
  0.23842285E-02 -0.89090584E-02  0.50876060E-03
  0.23987964E-02 -0.36970745E-02  0.20538116E-02
 -0.26458258E-02  0.49436866E-02  0.25119601E-03
  0.46973755E-03  0.19035402E-02  0.13257122E-02
 -0.40046654E-03 -0.63875982E-02  0.18790259E-04
 -0.34286777E-03 -0.26804965E-02  0.37982883E-03
  0.20851175E-02 -0.51610597E-03 -0.15168154E-02
 -0.76418332E-03 -0.36393485E-03  0.45424962E-02
  0.23224573E-02  0.57878938E-02  0.21900662E-02
  0.25644590E-02 -0.13186355E-02 -0.44640444E-03
 -0.30821018E-02 -0.17558657E-02  0.41049624E-03
 -0.29613251E-02 -0.26589687E-02 -0.47552808E-03
 -0.28802645E-02  0.31132401E-02  0.75036492E-03
  0.22191172E-02  0.82217278E-03  0.16173697E-02
  0.95354086E-03  0.51180753E-02  0.27671967E-02
 -0.49558301E-02  0.84094669E-03 -0.34578965E-02
 -0.26813594E-02 -0.32021535E-02 -0.16622762E-03
  0.19832683E-03 -0.34928712E-02 -0.24173749E-02
  0.46280988E-02  0.89025088E-03 -0.75588933E-02
  0.12878305E-02 -0.26659534E-02 -0.23850931E-02
 -0.25152204E-02 -0.85974827E-03 -0.28278233E-02
 -0.23341963E-03  0.25849315E-02 -0.12512377E-02
  0.18216874E-02 -0.61710615E-02  0.55301257E-03
  0.24685879E-02  0.27021369E-02  0.23158052E-03
  0.30746539E-02 -0.16332244E-02  0.23945407E-02
  0.99922152E-03  0.53126448E-02 -0.19376954E-02
 -0.18179647E-03  0.45954290E-02 -0.15103780E-02
  0.17190762E-02 -0.12872199E-02  0.18267946E-03
 -0.31705410E-02 -0.16117258E-02  0.88155946E-03
 -0.15430116E-02 -0.38478859E-02 -0.16290823E-04
 -0.29593644E-02  0.37749543E-02 -0.32694501E-03
 -0.25532440E-02  0.54582799E-02  0.19497166E-03
 -0.10172160E-02  0.66455197E-02 -0.20595683E-02
 -0.33652019E-03  0.10249535E-02 -0.49685406E-03
 -0.19276024E-02 -0.31436931E-02  0.84640744E-03
  0.15914782E-02  0.51098154E-02 -0.80177233E-04
  0.27134825E-02  0.12693151E-02  0.64586730E-02
 -0.36357327E-02  0.74259911E-02  0.19519172E-03
 -0.16085593E-02 -0.11900823E-02  0.23495147E-02
  0.19721931E-02 -0.14954712E-02  0.14794756E-03
  0.15794752E-02 -0.51183290E-02 -0.22445617E-03
  0.67636492E-02  0.60006803E-02 -0.21803890E-03
 -0.20908385E-02  0.44606632E-02  0.88564050E-03
 -0.12043154E-01 -0.66431169E-02  0.32192782E-04
  0.25225576E-02 -0.24052355E-02 -0.32671002E-02
 -0.40846831E-02  0.50404949E-03 -0.30136230E-02
 -0.72583288E-02  0.14316453E-01  0.40037930E-02
 -0.93329416E-03  0.71570729E-02  0.14572999E-02
 -0.41870551E-02  0.24005226E-02 -0.21456771E-03
  0.20906911E-02 -0.12734251E-01 -0.18392167E-02
 -0.93760800E-02 -0.37828821E-03 -0.12607282E-02
 -0.41011882E-02  0.12270551E-01  0.10707262E-02
 -0.68023105E-02  0.53295951E-02  0.31766319E-03
  0.21474274E-03 -0.79691211E-02 -0.13993126E-02
 -0.25556152E-02  0.18257928E-03 -0.13879754E-02
  0.52273092E-02 -0.23926546E-02 -0.13916999E-03
 -0.27199402E-02 -0.84409597E-02 -0.10107681E-02
 -0.28837993E-02  0.43407230E-02  0.17682168E-02
  0.38737068E-03  0.78246282E-02 -0.97823483E-03
 -0.71062582E-02  0.49777098E-02  0.49856127E-03
  0.65428801E-02  0.94750524E-02 -0.16186508E-02
  0.69482092E-03 -0.18568902E-02  0.12204287E-02
 -0.30466563E-02  0.12229310E-02  0.14691980E-02
 -0.61489806E-02 -0.71066114E-02  0.10778258E-03
 -0.50041807E-02  0.40231954E-02 -0.49689833E-03
  0.85461441E-02 -0.11673312E-01 -0.31441580E-03
  0.13438132E-01 -0.16490262E-02 -0.12147396E-02
  0.12673698E-01  0.14186527E-01 -0.18624360E-02
 -0.51782050E-02  0.89118554E-02  0.54204112E-03
  0.78988237E-03 -0.34244629E-02 -0.19855046E-02
 -0.43715354E-02  0.80246010E-02  0.50583213E-04
  0.77405942E-02 -0.11207064E-01  0.30532746E-02
  0.48331791E-02  0.41166361E-02  0.75249547E-03
  0.63382404E-02 -0.45483878E-02  0.82978091E-03
  0.58894027E-03 -0.66486193E-02  0.43950830E-03
  0.10574804E-01 -0.78671197E-02 -0.12765095E-02
  0.10960852E-01  0.53613620E-02  0.12748955E-03
  0.55639540E-02  0.45138448E-02 -0.13990876E-02
 -0.86483866E-03  0.49306991E-02 -0.48688979E-02
 -0.74524616E-02 -0.35542136E-02 -0.23477356E-02
  0.74147119E-02  0.79112031E-02  0.26130022E-02
 -0.38018556E-02  0.83107980E-02  0.85769405E-03
 -0.70599036E-02  0.12817069E-01 -0.33017821E-02
 -0.21981802E-02  0.51875160E-02 -0.12588216E-02
  0.87860800E-02  0.64586093E-02  0.42037079E-02
  0.39770683E-02 -0.12043910E-01  0.97621771E-03
 -0.14550970E-01  0.10636429E-02 -0.88612601E-03
  0.80675695E-02 -0.92450512E-03 -0.55683669E-02
  0.51145578E-02  0.25769028E-02  0.28528423E-02
  0.35385243E-02 -0.67240409E-02 -0.22156780E-03
 -0.28171361E-02  0.27311212E-02  0.28684494E-02
 -0.19445294E-02 -0.20637509E-02 -0.67386962E-03
 -0.10064926E-02  0.37909580E-02 -0.11928571E-02
  0.10108588E-02  0.65210903E-02  0.88097184E-03
 -0.14850236E-02  0.46426796E-02  0.82927320E-03
 -0.24347469E-02 -0.23031824E-02 -0.19712346E-03
  0.17080277E-02  0.61127505E-02 -0.37603192E-02
  0.10859082E-02 -0.20388353E-02 -0.12128877E-02
 -0.42059254E-02  0.13647855E-02 -0.30645598E-02
 -0.18749863E-02 -0.68144620E-02 -0.23304351E-02
  0.10793566E-02  0.38713969E-02 -0.20776332E-02
  0.11727801E-01 -0.97589936E-02  0.16281764E-02
  0.16281155E-01  0.33834588E-02  0.32751127E-02
  0.17121453E-02 -0.86056500E-02 -0.60340762E-02
 -0.91436345E-02 -0.21040062E-03 -0.44660907E-02
  0.13315523E-02 -0.44422418E-02  0.22734807E-03
 -0.34236530E-02  0.87259386E-02 -0.18028712E-03
  0.66256590E-02 -0.33561851E-02  0.84998991E-02
  0.64747287E-02  0.24416239E-02 -0.21002200E-03
  0.66062623E-02 -0.53557957E-02 -0.33304452E-02
 -0.11157861E-02 -0.66683605E-02 -0.29258046E-02
 -0.96808245E-02 -0.10594349E-01  0.61370316E-02
  0.42702068E-02 -0.20910381E-02 -0.46803114E-02
  0.87952086E-02 -0.66996019E-02  0.18141891E-02
  0.19856979E-02 -0.12941747E-02  0.11251367E-02
 -0.75809345E-02 -0.63902188E-02  0.65598531E-03
  0.10061261E-01  0.36752857E-02  0.25917212E-02
  0.30064845E-02 -0.25412465E-02 -0.67245462E-03
 -0.71645803E-02  0.14707045E-01  0.21229348E-02
 -0.25309488E-02  0.38039066E-02 -0.16699981E-02
  0.89381388E-02  0.85363239E-02 -0.45444907E-02
  0.31623720E-03  0.32162005E-03 -0.14542349E-02
 -0.21305971E-03  0.67143527E-02  0.17359463E-02
  0.45158826E-03  0.64957508E-02  0.62909366E-02
  0.53806771E-02  0.28364031E-02 -0.91866120E-03
  0.47951631E-02 -0.40569854E-02 -0.15166881E-02
 -0.32097184E-03 -0.10452668E-02  0.95541858E-03
 -0.32885112E-02  0.42762192E-04  0.86798024E-03
 -0.28409156E-02  0.52412060E-02  0.26691127E-02
  0.48603338E-02 -0.19670953E-02 -0.16293459E-02
 -0.45422367E-02  0.67045497E-02 -0.53373109E-03
 -0.48669453E-02  0.17329047E-02 -0.13056943E-02
  0.46261572E-02  0.15230832E-02  0.18341502E-02
 -0.45385154E-03  0.55842126E-02  0.47655383E-03
 -0.58000138E-03  0.14320255E-03  0.40855895E-03
 -0.30521483E-02 -0.72123715E-02  0.40159324E-02
 -0.10289552E-02  0.37224864E-02  0.25904411E-02
 -0.84700748E-02  0.66433954E-02  0.17837874E-03
 -0.39441759E-02  0.84400956E-02  0.85080402E-03
 -0.25008349E-02 -0.68948748E-02  0.74581389E-02
 -0.52742690E-02 -0.30380476E-02  0.48448203E-02
 -0.10771220E-02 -0.12964581E-01  0.11934658E-02
 -0.81465945E-02  0.67672069E-02  0.10695145E-03
  0.26594182E-02 -0.53329707E-03 -0.69033018E-02
  0.70631516E-02  0.34681265E-02 -0.30566495E-03
  0.43673312E-02 -0.37429268E-02  0.20742729E-03
  0.54618943E-02 -0.70319105E-02  0.17097957E-04
 -0.85568098E-02 -0.11372021E-01 -0.60731588E-02
  0.44120089E-02 -0.42308911E-03  0.24308929E-02
  0.99940827E-02 -0.25709552E-02  0.10184666E-02
 
           1
   1.00000000000000     
  0.35995475E+00 -0.27235764E-02 -0.15429422E-03  0.00000000E+00
  0.97748720E+00  0.99512622E+00  0.98745728E+00
  0.16676627E+00  0.17540799E+00  0.16469479E+00
  0.31962337E+00  0.98104951E+00  0.99960998E+00
  0.48341926E+00  0.14555432E+00  0.16687374E+00
  0.67585779E+00  0.22660986E-01  0.99276248E+00
  0.86132281E+00  0.18677122E+00  0.16855511E+00
  0.29210176E-01  0.36570217E+00  0.99909855E+00
  0.21934930E+00  0.52621393E+00  0.16749045E+00
  0.33071871E+00  0.33704013E+00  0.99801589E+00
  0.50986961E+00  0.47960139E+00  0.16730378E+00
  0.65971589E+00  0.30496001E+00  0.99909529E+00
  0.81807378E+00  0.49032656E+00  0.16749471E+00
  0.97347769E+00  0.67560910E+00  0.99539912E+00
  0.16606649E+00  0.71525525E+00  0.16957524E+00
  0.38517677E+00  0.65867338E+00  0.98144411E+00
  0.51643560E+00  0.86982262E+00  0.16509772E+00
  0.65083906E+00  0.67069508E+00  0.24829742E-02
  0.79065049E+00  0.84503111E+00  0.16702841E+00
  0.97855298E+00  0.99318789E+00  0.34603447E+00
  0.16449373E+00  0.15634533E+00  0.49099223E+00
  0.32029462E+00  0.98274590E+00  0.33258950E+00
  0.48424837E+00  0.16456671E+00  0.50325290E+00
  0.67750263E+00  0.19547944E-01  0.33849260E+00
  0.85190224E+00  0.18137241E+00  0.50083500E+00
  0.26468292E-01  0.36320742E+00  0.33105389E+00
  0.16801979E+00  0.52251848E+00  0.49390999E+00
  0.33427007E+00  0.33518354E+00  0.33289225E+00
  0.51038902E+00  0.48266728E+00  0.50925093E+00
  0.65916456E+00  0.30178986E+00  0.33063048E+00
  0.82032407E+00  0.49427890E+00  0.50025156E+00
  0.97147238E+00  0.67493864E+00  0.33933354E+00
  0.16228590E+00  0.81851377E+00  0.49975570E+00
  0.38629269E+00  0.66157683E+00  0.35115155E+00
  0.51015802E+00  0.83945718E+00  0.50825691E+00
  0.65045608E+00  0.67216341E+00  0.33150386E+00
  0.82027720E+00  0.83559714E+00  0.50467625E+00
  0.15437080E-01  0.98943404E+00  0.66482463E+00
  0.16656984E+00  0.15722104E+00  0.83582290E+00
  0.32079719E+00  0.99793539E+00  0.66720946E+00
  0.47932436E+00  0.16241014E+00  0.83366613E+00
  0.68159039E+00  0.24518096E-01  0.66448496E+00
  0.85558157E+00  0.18635607E+00  0.83189603E+00
  0.21220771E-01  0.34205709E+00  0.66384209E+00
  0.16923651E+00  0.52665154E+00  0.83860422E+00
  0.32361820E+00  0.34151525E+00  0.66623743E+00
  0.51478070E+00  0.47947974E+00  0.82731431E+00
  0.66566075E+00  0.30124570E+00  0.66827642E+00
  0.82496714E+00  0.49599806E+00  0.83545510E+00
  0.97995424E+00  0.66227774E+00  0.66684561E+00
  0.16102791E+00  0.81938336E+00  0.83544129E+00
  0.33587155E+00  0.67834421E+00  0.66879121E+00
  0.50752457E+00  0.84105893E+00  0.82860504E+00
  0.66284257E+00  0.65771804E+00  0.66893516E+00
  0.81970229E+00  0.83508290E+00  0.82896638E+00
  0.10353073E+00  0.90672483E-01  0.45115466E-02
  0.23265266E+00  0.22633467E+00  0.99839934E+00
  0.82904522E-01  0.28785401E+00  0.16445227E+00
  0.25399475E+00  0.36082306E-01  0.16615464E+00
  0.43686373E+00  0.70164188E-01  0.99875662E+00
  0.53919240E+00  0.22039743E+00  0.11566881E-02
  0.38947498E+00  0.25709142E+00  0.16085926E+00
  0.60361108E+00  0.68702261E-01  0.16614698E+00
  0.80092974E+00  0.10038431E+00  0.98622713E+00
  0.91766586E+00  0.24342035E+00  0.23368965E-02
  0.71895251E+00  0.23356959E+00  0.16388080E+00
  0.93087385E+00  0.66622978E-01  0.16801690E+00
  0.12632743E+00  0.46422735E+00  0.15509993E-01
  0.25283487E+00  0.58995902E+00  0.98946223E+00
  0.74535930E-01  0.61421414E+00  0.16342460E+00
  0.27787821E+00  0.40589629E+00  0.16890830E+00
  0.43972310E+00  0.42414907E+00  0.99802883E+00
  0.57235891E+00  0.55359017E+00  0.99537467E+00
  0.42860598E+00  0.59885585E+00  0.16458880E+00
  0.60694836E+00  0.37595730E+00  0.16398851E+00
  0.77030860E+00  0.41821831E+00  0.10914201E-02
  0.89233203E+00  0.55915630E+00  0.54535637E-02
  0.72293410E+00  0.60658171E+00  0.16735339E+00
  0.93868919E+00  0.39342704E+00  0.16467123E+00
  0.94358578E-01  0.75304527E+00  0.35666330E-02
  0.21608303E+00  0.88046900E+00  0.89643116E-02
  0.27697910E-01  0.93420765E+00  0.16768431E+00
  0.30850919E+00  0.71686960E+00  0.16687670E+00
  0.45345739E+00  0.78235521E+00  0.99702501E+00
  0.56674061E+00  0.92445636E+00  0.99251427E+00
  0.38835605E+00  0.92146863E+00  0.17233960E+00
  0.59587585E+00  0.74331726E+00  0.16584695E+00
  0.74566535E+00  0.78028964E+00  0.99440054E+00
  0.87290478E+00  0.89882773E+00  0.99985737E+00
  0.72506972E+00  0.95778507E+00  0.16287131E+00
  0.90789288E+00  0.72822233E+00  0.16562757E+00
  0.10156942E+00  0.92882388E-01  0.33217940E+00
  0.23642574E+00  0.22593732E+00  0.32925171E+00
  0.78504130E-01  0.27756069E+00  0.49250452E+00
  0.25940529E+00  0.50380876E-01  0.48910891E+00
  0.43362324E+00  0.78467819E-01  0.33767478E+00
  0.53685768E+00  0.22513630E+00  0.33056025E+00
  0.37887724E+00  0.26529936E+00  0.49996267E+00
  0.61854243E+00  0.93847436E-01  0.49417612E+00
  0.79955199E+00  0.98952825E-01  0.34626308E+00
  0.91162055E+00  0.24859005E+00  0.33839323E+00
  0.73348543E+00  0.26899158E+00  0.49550574E+00
  0.95015968E+00  0.71523080E-01  0.51186720E+00
  0.12192928E+00  0.46319559E+00  0.31735427E+00
  0.25434368E+00  0.58885994E+00  0.34440659E+00
  0.56811625E-01  0.61638736E+00  0.50180208E+00
  0.26684424E+00  0.41055651E+00  0.49165222E+00
  0.44164133E+00  0.42540993E+00  0.33281774E+00
  0.56884960E+00  0.55563428E+00  0.33878834E+00
  0.41125741E+00  0.59427058E+00  0.52311245E+00
  0.60347994E+00  0.37399307E+00  0.49827710E+00
  0.76953415E+00  0.41633508E+00  0.33260770E+00
  0.89219299E+00  0.55854132E+00  0.33072569E+00
  0.72750781E+00  0.60423701E+00  0.49705784E+00
  0.95013970E+00  0.40537344E+00  0.50051410E+00
  0.95138338E-01  0.75268904E+00  0.33627399E+00
  0.22083089E+00  0.88454403E+00  0.32537325E+00
  0.61096316E-01  0.92489602E+00  0.48541277E+00
  0.27759611E+00  0.73524725E+00  0.49472818E+00
  0.45632714E+00  0.78088784E+00  0.33652512E+00
  0.56770806E+00  0.92459429E+00  0.34124131E+00
  0.40203300E+00  0.93618839E+00  0.50299511E+00
  0.59021074E+00  0.72201463E+00  0.50965293E+00
  0.74607169E+00  0.78050381E+00  0.34081934E+00
  0.87117139E+00  0.90068151E+00  0.33555567E+00
  0.73171408E+00  0.95072623E+00  0.50527345E+00
  0.91525627E+00  0.73237407E+00  0.50353521E+00
  0.10728913E+00  0.10016664E+00  0.66393599E+00
  0.22495632E+00  0.23252568E+00  0.66665265E+00
  0.75757960E-01  0.27751930E+00  0.83653084E+00
  0.25344203E+00  0.45187887E-01  0.84231571E+00
  0.42279862E+00  0.95380507E-01  0.66883496E+00
  0.53377993E+00  0.24135253E+00  0.66990637E+00
  0.37969248E+00  0.26654400E+00  0.83515283E+00
  0.61552074E+00  0.89017190E-01  0.83482769E+00
  0.77217890E+00  0.13302244E+00  0.66612199E+00
  0.90930768E+00  0.25092396E+00  0.66075652E+00
  0.73422430E+00  0.26624526E+00  0.83901088E+00
  0.95605412E+00  0.77446976E-01  0.82210836E+00
  0.11402962E+00  0.45541558E+00  0.66671923E+00
  0.23066691E+00  0.58399972E+00  0.66781011E+00
  0.55363197E-01  0.61633767E+00  0.83243801E+00
  0.26402801E+00  0.40956978E+00  0.83899365E+00
  0.43676377E+00  0.42383560E+00  0.67246838E+00
  0.58847169E+00  0.53786881E+00  0.66979167E+00
  0.41032691E+00  0.59126314E+00  0.81142995E+00
  0.60460174E+00  0.37045863E+00  0.83624596E+00
  0.77681707E+00  0.41964997E+00  0.67071495E+00
  0.88837074E+00  0.55852794E+00  0.66587305E+00
  0.72705772E+00  0.60297516E+00  0.84015266E+00
  0.95381524E+00  0.40701783E+00  0.83098862E+00
  0.95988295E-01  0.76176909E+00  0.66833477E+00
  0.20409104E+00  0.90417197E+00  0.66573999E+00
  0.55851024E-01  0.92323612E+00  0.84125427E+00
  0.27756927E+00  0.73423171E+00  0.84078573E+00
  0.43690865E+00  0.77522462E+00  0.66807165E+00
  0.56865632E+00  0.92186617E+00  0.66876257E+00
  0.39725386E+00  0.93855125E+00  0.82875201E+00
  0.58801039E+00  0.72435849E+00  0.82819672E+00
  0.75464933E+00  0.76899778E+00  0.66623821E+00
  0.90720216E+00  0.88014161E+00  0.66564021E+00
  0.73450600E+00  0.95192927E+00  0.82433482E+00
  0.91450179E+00  0.73080540E+00  0.83171409E+00
  0.15641927E+00  0.92989190E+00  0.16499786E+00
  0.38964350E-04 -0.20788251E-03  0.16428184E-04
 -0.15365343E-03  0.12611172E-03 -0.32145894E-04
 -0.61921512E-04 -0.10777301E-03 -0.56518909E-03
  0.60557366E-04 -0.76142531E-04  0.59032959E-04
  0.18253309E-03 -0.14423006E-03  0.83206248E-04
 -0.28729628E-03 -0.22385522E-03  0.50614160E-06
 -0.22892699E-03 -0.16428041E-03 -0.10590611E-04
 -0.26836015E-03 -0.40649212E-03 -0.76155540E-04
  0.21003911E-03  0.65891850E-04 -0.16125404E-03
  0.11713970E-05  0.45779485E-03 -0.53619372E-04
 -0.38652805E-03  0.10412525E-03  0.32568741E-03
  0.38151784E-03 -0.63026453E-05 -0.54130582E-04
  0.79907061E-04 -0.23024430E-03  0.28117631E-03
  0.16037496E-03 -0.61250789E-03  0.51847215E-04
  0.16935371E-03 -0.25687030E-03  0.20020268E-03
 -0.18029427E-03  0.34162468E-03  0.23323673E-04
  0.28608437E-04  0.13167122E-03  0.13684461E-03
 -0.37401567E-04 -0.42918582E-03  0.22093318E-05
 -0.22515824E-04 -0.18695534E-03  0.44063653E-04
  0.14305454E-03 -0.40610273E-04 -0.15744037E-03
 -0.61326433E-04 -0.24282239E-04  0.45376154E-03
  0.15969091E-03  0.39634038E-03  0.22516278E-03
  0.17754364E-03 -0.92523066E-04 -0.45398593E-04
 -0.21142533E-03 -0.11814896E-03  0.43924983E-04
 -0.19809077E-03 -0.17713759E-03 -0.49261534E-04
 -0.19883673E-03  0.21286727E-03  0.70522262E-04
  0.15365450E-03  0.59563898E-04  0.16313263E-03
  0.65550566E-04  0.34928839E-03  0.28436050E-03
 -0.34022237E-03  0.52829604E-04 -0.35084213E-03
 -0.18707586E-03 -0.21564536E-03 -0.15563588E-04
  0.10585491E-04 -0.23465164E-03 -0.24121244E-03
  0.31875967E-03  0.60207709E-04 -0.76818733E-03
  0.93735147E-04 -0.18515192E-03 -0.23371083E-03
 -0.17196902E-03 -0.64288202E-04 -0.28731575E-03
 -0.19628454E-04  0.17907370E-03 -0.12936939E-03
  0.12624287E-03 -0.42247638E-03  0.54250681E-04
  0.17233106E-03  0.18411027E-03  0.23385357E-04
  0.21351303E-03 -0.11597860E-03  0.24421342E-03
  0.66970104E-04  0.36727799E-03 -0.19459493E-03
 -0.14574193E-04  0.31457601E-03 -0.15586924E-03
  0.12292515E-03 -0.87306312E-04  0.17124609E-04
 -0.21801143E-03 -0.10652185E-03  0.86868202E-04
 -0.10580091E-03 -0.26465033E-03 -0.19745456E-05
 -0.20376410E-03  0.25935912E-03 -0.28289406E-04
 -0.17170738E-03  0.37447328E-03  0.19662438E-04
 -0.68166603E-04  0.45179474E-03 -0.21411634E-03
 -0.21270906E-04  0.64016983E-04 -0.48485806E-04
 -0.13448630E-03 -0.21168907E-03  0.84770963E-04
  0.10548944E-03  0.34628807E-03 -0.81315483E-05
  0.18763840E-03  0.86935736E-04  0.65793440E-03
 -0.24999856E-03  0.50806910E-03  0.20851057E-04
 -0.11029362E-03 -0.86345264E-04  0.24032056E-03
  0.13459801E-03 -0.10297505E-03  0.14813550E-04
  0.10921694E-03 -0.35101139E-03 -0.21751644E-04
  0.46007830E-03  0.40605604E-03 -0.39613600E-04
 -0.14807702E-03  0.30556921E-03  0.89511847E-04
 -0.82622737E-03 -0.45799098E-03 -0.83726330E-06
  0.20154942E-03 -0.19010610E-03 -0.32653123E-03
 -0.25994246E-03  0.12833535E-04 -0.30957629E-03
 -0.52170837E-03  0.96329241E-03  0.40102049E-03
 -0.48119995E-04  0.47012700E-03  0.13750150E-03
 -0.28239061E-03  0.14768842E-03 -0.27187792E-04
  0.16174333E-03 -0.87674040E-03 -0.19888735E-03
 -0.65022273E-03 -0.36330366E-04 -0.11048248E-03
 -0.29507740E-03  0.82579000E-03  0.10337934E-03
 -0.47705754E-03  0.36013837E-03  0.32351936E-04
  0.18837165E-04 -0.54095758E-03 -0.13846499E-03
 -0.18146944E-03  0.19755554E-04 -0.14039742E-03
  0.37482465E-03 -0.14758765E-03 -0.22714912E-04
 -0.20468721E-03 -0.55219965E-03 -0.96722000E-04
 -0.21229741E-03  0.27738192E-03  0.17536260E-03
  0.44652726E-04  0.54656142E-03 -0.10416653E-03
 -0.48781387E-03  0.35598762E-03  0.44840244E-04
  0.45424804E-03  0.63390439E-03 -0.17138447E-03