CONTCAR-qvdai                           
   1.00000000000000     
    14.4743895367443027    0.0112378294299857    0.0000000000000000
     0.0112378316792506   14.4743840573675850    0.0000000000000000
     0.0000000000000000    0.0000000000000000    9.7934198193542592
   Sn   Pb   O 
    53     1   107
Direct
  0.9918049306107879  0.9999179630356601  0.0012661538989404
  0.1633505961828303  0.1679196006271521  0.1717602619544604
  0.4997367896759329  0.1597316700612802  0.1678881182699040
  0.6728100094108047  0.9956157931764856  0.9928953403585339
  0.8326253112333161  0.1702006854199158  0.1786686249888356
  0.9978457060766099  0.3307418459871679  0.0026258312046701
  0.1687962023468866  0.4993776010707165  0.1732955835811398
  0.3342151488658419  0.3230330937708571  0.9931050732115471
  0.4943132193655785  0.4800440085704651  0.1655977739356899
  0.6765150854153950  0.3319955458278387  0.9826696087013083
  0.8333594810691901  0.5032818684359673  0.1694115430369694
  0.0138523021596301  0.6667565502852114  0.0123210656138773
  0.1622983089293293  0.8224858951842104  0.1822388860108870
  0.3352369257297922  0.6554811858795317  0.0082043484787274
  0.4840997561756836  0.8364522838248477  0.1648349458676237
  0.6508911070008391  0.6603636471708241  0.9853521017637591
  0.8259668074632738  0.8281236915525665  0.1615335104409724
  0.9944048179671101  0.0036652372631951  0.3332984364321418
  0.1718045252218319  0.1742912234882168  0.5034629269497852
  0.3313402120880308  0.0046658312681611  0.3300715972160144
  0.5030115275410532  0.1639357108414586  0.5007433390414198
  0.6763625638295599  0.9953279383312514  0.3325344320779665
  0.8438838809282331  0.1827733734220427  0.4995487616845652
  0.0043572318348696  0.3361794365257903  0.3235980207965510
  0.1707334893106560  0.5002135146206681  0.4983644526206148
  0.3433708664476720  0.3311547102951934  0.3335796660523312
  0.5059549807155909  0.4965456770521607  0.4994044182552279
  0.6751924018786278  0.3314332617064892  0.3228712250518476
  0.8316794870408202  0.4929721541288128  0.4955201899523173
  0.9952450511848496  0.6650628301446273  0.3364796273080928
  0.1590738651234569  0.8302655287915852  0.4964148761204406
  0.3401953780680761  0.6608599366693335  0.3339719247772763
  0.4904384177114899  0.8347755814835578  0.5017714425914273
  0.6501118425293843  0.6629325167719001  0.3413399797738211
  0.8300264878703172  0.8299460664322235  0.5044376891288185
  0.0038130677775684  0.9847615515314581  0.6659489771195829
  0.1518444145353826  0.1693445127101499  0.8261698563382475
  0.3339126640899744  0.0100471409858308  0.6644705919222392
  0.5102843647324659  0.1794765704591088  0.8307371149949049
  0.6643274424834685  0.0014024774607539  0.6742269634632589
  0.8415578323869636  0.1703515661230599  0.8394619878141418
  0.9973980822147452  0.3383270848125411  0.6653453041316334
  0.1733736396978911  0.4989433879011395  0.8471904394623130
  0.3387028711508000  0.3303265098479077  0.6493975258080986
  0.4953178752618024  0.4934360788921942  0.8301916429657780
  0.6702042585819630  0.3465198147483380  0.6583522957938724
  0.8411557445775735  0.5064467967680351  0.8399890775323375
  0.9968487314449853  0.6630843240906593  0.6761599219563822
  0.1698733089317183  0.8339419624242226  0.8182910252369657
  0.3245301725870366  0.6713545185227281  0.6616539669707997
  0.4938841481095949  0.8301494035746125  0.8410686880759616
  0.6656171580931827  0.6589741800166473  0.6573495560594365
  0.8354594355814349  0.8282494021239981  0.8438841084718790
  0.3404791379219819  0.0241689645997303  0.9945649710714352
  0.0998734503625302  0.1049778979259523  0.0104963493079061
  0.2359460054915367  0.2304085718570653  0.9906964006698254
  0.0661604262251896  0.2642592045912351  0.1622786745007692
  0.2777411737542027  0.0759465930097452  0.1806714758893226
  0.4623816982847173  0.1058585052406907  0.9950603031238274
  0.5700715601362868  0.2451450119147911  0.9902222827705511
  0.4109278732662402  0.2700954276477102  0.1824829467143905
  0.6153209837055019  0.0608192444949882  0.1691272286185622
  0.7740079140096258  0.1058566371036358  0.0082018257112899
  0.8972814868206332  0.2391430598075690  0.0081976511165807
  0.7124322412114664  0.2691799443904246  0.1607572438241678
  0.9255184446741970  0.0576930525399204  0.1631951616988808
  0.0957983118106026  0.4453076487367700  0.0074005084757900
  0.2171942470788925  0.5742620695824322  0.0137997606007826
  0.0709744215611349  0.6187443594762601  0.1781029024935244
  0.2686790526194688  0.3849439959096138  0.1747686972164839
  0.4356897812930268  0.4272501754724326  0.9970247933977981
  0.5507589530268329  0.5625734783944217  0.9963787789498536
  0.3946057184677578  0.5945015351097795  0.1643051750014794
  0.6163284536970243  0.3982988635424932  0.1628002397353062
  0.7709208100906639  0.4389232749557315  0.0080463574864501
  0.9065786141822929  0.5667296860171864  0.0067586349959147
  0.7232238705272560  0.5948592414860989  0.1624994592582541
  0.9357739756472013  0.4021632630735152  0.1814731540257952
  0.1209493243164746  0.7871175364416237  0.0021149151531170
  0.0646253743281241  0.9255378624649050  0.1621788959763830
  0.2720496111003316  0.7256892319642115  0.1680307181564935
  0.4313561273935659  0.7584134053667365  0.9975899547591688
  0.5450385120532921  0.9052483712515672  0.0057165778578143
  0.3874528564874343  0.9355204594243529  0.1694463155314762
  0.5988413016921977  0.7265932401295822  0.1599017277133869
  0.7581024424651686  0.7698888621907161  0.0022701974203794
  0.8884203247135548  0.8955540383780657  0.9985282885883273
  0.7337517193439408  0.9371140517135803  0.1588579939717843
  0.9439686144855784  0.7463597937446167  0.1655918660251236
  0.1047361619196147  0.1068971685477165  0.3481403533191602
  0.2429789199639386  0.2288468840157005  0.3478699221409340
  0.0624769106905020  0.2801573466876227  0.5035008866065728
  0.2645813214737117  0.0658654610741631  0.5011144057019077
  0.4300534702837940  0.1027204263453871  0.3188662948907237
  0.5711987272498363  0.2277138873429773  0.3545535348087334
  0.4004670535996940  0.2645938416142746  0.4910659299431385
  0.5863383906680285  0.0474448504349130  0.5005830603271131
  0.7592606758468667  0.1153287940315486  0.3456096616477738
  0.9118364338870714  0.2286776935050540  0.3234282218954764
  0.7500855472613258  0.2875641677547656  0.4947785818080612
  0.9294081288996708  0.0670492894318176  0.4915924444459617
  0.1218528735654632  0.4193346307073935  0.3288863212915181
  0.2319894560505864  0.5681085440116278  0.3370062649294003
  0.0712644278862548  0.6143554100021699  0.5008106375347113
  0.2835666844627276  0.4068930864031286  0.5031521489768931
  0.4326278936110399  0.4399220961157490  0.3384646692783531
  0.5518639038785449  0.5709088299266516  0.3366566789974194
  0.3863842887440477  0.5902901868203594  0.5016784365058609
  0.6262644728498743  0.4155189811682012  0.4990370749080028
  0.7619433601705229  0.4475498102502889  0.3296645988542398
  0.8961363456258407  0.5676678920227779  0.3371592758526396
  0.7431739943133516  0.6108369501433265  0.4990284205700094
  0.9301045346619858  0.3893742788357351  0.4778394364305786
  0.1001719512600771  0.7715988564274775  0.3274305927944227
  0.2286774722144513  0.8943936262898727  0.3328258799153518
  0.0560532669983285  0.9283705462357442  0.5016117941968896
  0.2686119405385990  0.7304096551739701  0.4931892040872505
  0.4374822169966752  0.7583915830210328  0.3268711686601576
  0.5530843138598631  0.8961347836550088  0.3394969543906831
  0.3900567784513080  0.9407038492555224  0.4914354079333682
  0.5833616405540062  0.7168435456054159  0.5093957461387466
  0.7701691553217904  0.7491868800948311  0.3449252749063177
  0.8914745258051566  0.8973989689964648  0.3305244523985095
  0.7253200212853121  0.9287738232985951  0.5092074828045182
  0.9399970075697049  0.7465867268761698  0.5071403826535930
  0.0954188549084058  0.1134776351143997  0.6639187057713793
  0.2321807629944388  0.2403415469807854  0.6605311806731280
  0.0571599693946744  0.2692533524682704  0.8228708784129587
  0.2474119182059511  0.0637598173621167  0.8394750350209154
  0.4369297416227289  0.1075567623764900  0.6795426862015452
  0.5612617957801547  0.2455671624786220  0.6569964940118127
  0.3984119805282734  0.2603865651044089  0.8345239929529709
  0.6010456084596877  0.0610467043474236  0.8372519104688231
  0.7688023003050906  0.1071478271994761  0.6626746941597206
  0.8944909845100193  0.2498978883871076  0.6769684733671100
  0.7368844142377422  0.2707349165103644  0.8262817522754026
  0.9416218354562145  0.0679296476474780  0.8275759412327189
  0.1087364256490839  0.4312494633939410  0.6588944111159801
  0.2108575361433733  0.5769585092403573  0.6874449292929088
  0.0628799257442736  0.5977124148731753  0.8425349882159683
  0.2829734098395417  0.3995366644889959  0.8357708531748212
  0.4398695337293347  0.4382214670903946  0.6678333011280913
  0.5536917742810532  0.5736302471978018  0.6766756824254629
  0.3873920027443598  0.5895084128454271  0.8264192114188812
  0.6008246808272050  0.3902700888492852  0.8380904178361416
  0.7637775569743663  0.4407855039704604  0.6697574451650166
  0.9122703105053708  0.5511080507779257  0.6505210657514372
  0.7225798338891058  0.5882722174057868  0.8300674660826723
  0.9345610414438534  0.4005273245815966  0.8335050543688211
  0.0938689919048259  0.7726612754024855  0.6720623424730036
  0.2258176934388736  0.8994461163211188  0.6597429861469187
  0.0641692080359622  0.9408371874545937  0.8432440206545642
  0.2721182733094940  0.7301526212640186  0.8350993382964930
  0.4330792302692828  0.7640006948191498  0.6759571398884677
  0.5572942410930489  0.8988276374690044  0.6594562141643945
  0.3725584658714635  0.9236763695319493  0.8230853337063279
  0.6041355853145899  0.7350997883869587  0.8246560940852407
  0.7788234008580404  0.7482366403803403  0.6837560784538502
  0.8876739286417910  0.9074990553485501  0.6702067598741162
  0.7294380189096062  0.9278812005385133  0.8287974663187415
  0.9371949202244695  0.7291924245592826  0.8656690837234594
 
  0.99738093E-03  0.34337438E-02 -0.27315400E-03
  0.24378516E-02 -0.72251242E-04  0.19550292E-02
  0.25998257E-02  0.21361931E-02 -0.32238082E-02
  0.20848330E-02 -0.75535417E-03  0.29201484E-02
 -0.87294155E-03  0.76516156E-03  0.50310907E-02
  0.65651541E-03  0.61989446E-02  0.26414228E-02
 -0.42933329E-03  0.43024982E-02 -0.43158084E-02
 -0.34128677E-02 -0.77439279E-03  0.23529600E-02
 -0.11175757E-03 -0.29189344E-02 -0.21488371E-02
  0.22050112E-02  0.45495008E-03  0.37317877E-02
 -0.16077889E-02 -0.19300917E-02 -0.38447462E-02
  0.15926186E-03 -0.11699903E-03  0.25559901E-02
 -0.68001040E-03 -0.10181030E-02 -0.72561602E-03
 -0.71809085E-03  0.22764436E-02  0.74913247E-03
  0.13958514E-02 -0.19137001E-02  0.62850731E-03
  0.85086130E-03 -0.90151225E-03  0.20525600E-02
 -0.44528427E-02 -0.96806756E-03 -0.26880819E-02
 -0.48604230E-02  0.15239892E-02 -0.66360829E-03
  0.53501121E-03 -0.78307514E-03 -0.80232425E-03
 -0.87174615E-03  0.23780585E-02 -0.38796428E-02
 -0.30117006E-02  0.22397652E-02 -0.15217005E-02
  0.42869974E-02 -0.43601650E-02 -0.10196328E-02
  0.17489558E-02 -0.28484952E-02 -0.15645512E-02
 -0.26727968E-03  0.92761534E-03  0.20914315E-03
  0.38105710E-02 -0.30693106E-02 -0.57235751E-02
  0.15889230E-02 -0.87675645E-03  0.99412343E-03
  0.21041236E-03  0.22748335E-02  0.64690405E-03
  0.92272788E-03 -0.25328061E-04 -0.75414589E-03
  0.17726114E-02  0.41542840E-03  0.68520214E-03
  0.21458069E-02  0.13287205E-02 -0.22652932E-02
 -0.24306827E-03 -0.76274867E-03  0.19709999E-03
  0.17547311E-02 -0.96445409E-03 -0.33420529E-02
  0.44149387E-02  0.20107217E-02 -0.37856209E-03
 -0.14403487E-02 -0.18291321E-02  0.20198739E-02
 -0.62139656E-03  0.41201620E-02 -0.69905406E-03
  0.17993158E-02 -0.19144276E-03 -0.22234544E-03
 -0.20251132E-02  0.52033772E-03 -0.17659968E-02
  0.19335258E-02  0.76614312E-03  0.24075140E-02
 -0.10571052E-02 -0.93583635E-03  0.19888292E-02
  0.95501128E-03 -0.10025722E-02  0.33918001E-02
 -0.30922556E-02 -0.41114366E-02  0.21897478E-03
 -0.23432506E-03 -0.10085791E-03  0.94392494E-04
  0.25569323E-03 -0.36256759E-02 -0.82345506E-03
 -0.14961380E-02 -0.42480709E-02  0.77102497E-03
 -0.14324657E-02 -0.23055266E-02  0.67693034E-03
  0.22088929E-02 -0.17664854E-02 -0.13145249E-02
 -0.68220000E-03 -0.16306813E-02  0.51909269E-03
 -0.37734423E-02  0.18008378E-02  0.14285641E-02
  0.25189235E-02  0.21966921E-02  0.25565197E-02
 -0.20877493E-02  0.37357439E-02 -0.34190792E-03
  0.21447893E-02  0.38055552E-02 -0.12222408E-02
  0.20423616E-02  0.27474861E-02 -0.38805468E-02
  0.99010452E-03  0.35546644E-02 -0.20756435E-02
 -0.82931484E-03  0.21615310E-02 -0.10796274E-02
 -0.22289272E-02 -0.14229456E-02  0.16885585E-02
  0.77003023E-02  0.55864119E-02 -0.31079028E-02
 -0.11597544E-02 -0.10622146E-01  0.10733079E-01
 -0.35488495E-02 -0.11375897E-02  0.38735822E-02
 -0.90851650E-02  0.30632786E-02 -0.55197547E-02
 -0.66149347E-02 -0.25232170E-02 -0.86385503E-02
 -0.36537500E-02 -0.60894731E-02 -0.44591686E-02
  0.54895440E-02  0.23732653E-02  0.77897755E-02
  0.13812457E-01  0.12237933E-02 -0.27745558E-03
  0.17831030E-02 -0.15456731E-02 -0.49962860E-02
 -0.13820481E-01  0.21555101E-03 -0.89905117E-02
 -0.17547376E-01 -0.15761572E-02 -0.30422214E-02
 -0.48031037E-03 -0.10237813E-01  0.15124687E-02
 -0.98553198E-02  0.80353318E-02  0.80831697E-02
  0.17391090E-01 -0.18746761E-03  0.43010815E-02
  0.11805656E-01  0.27164786E-02  0.67877236E-02
 -0.34936902E-02  0.96878440E-02 -0.22346459E-02
 -0.43370179E-02  0.30510150E-02  0.51814198E-03
  0.42990582E-02  0.73286675E-02 -0.46848986E-02
 -0.72426866E-02  0.18730680E-02  0.11567100E-02
 -0.25588082E-02 -0.43396873E-02  0.15826666E-02
  0.13861799E-02 -0.90269614E-02  0.79121519E-02
 -0.84965691E-03 -0.94065369E-03 -0.70270922E-02
 -0.19316389E-02  0.47810597E-02  0.45277356E-02
  0.74195632E-02 -0.16481015E-01 -0.42648662E-02
 -0.49124891E-02 -0.29997170E-02  0.69842776E-02
 -0.25751804E-02  0.71625706E-02 -0.89194318E-02
  0.75787396E-02  0.79973100E-02 -0.67672937E-02
  0.37566174E-02 -0.99684447E-02  0.83726877E-02
 -0.52977967E-02  0.56293470E-03 -0.52439752E-03
  0.89894082E-03 -0.11506523E-01 -0.65772378E-02
 -0.13766372E-01  0.70117212E-02  0.66686485E-02
 -0.34763091E-03 -0.54521453E-02  0.10299946E-01
 -0.34301568E-02  0.13226659E-02  0.62464330E-02
 -0.31471540E-02 -0.26985698E-02 -0.26566646E-03
  0.91899942E-04  0.38894870E-02 -0.33106663E-02
 -0.74110235E-02 -0.87934977E-02 -0.41556232E-02
  0.75960778E-02 -0.12389963E-03 -0.13066480E-02
  0.49789856E-02  0.71831613E-02 -0.55570735E-02
 -0.83220622E-02 -0.11953715E-02 -0.70792957E-03
 -0.38143311E-02  0.37457379E-03  0.42952701E-03
  0.15113243E-02 -0.14615999E-01  0.10456000E-01
  0.23027101E-02  0.59833427E-03  0.69555329E-02
  0.27424411E-03  0.34947132E-02  0.37961664E-02
 -0.40956219E-02  0.99323376E-02 -0.36905471E-02
 -0.85907541E-02 -0.25013255E-02  0.22035201E-02
 -0.47981645E-02  0.39741697E-02  0.31546432E-02
  0.12723092E-02  0.13249905E-02 -0.69384997E-02
 -0.76861356E-02 -0.72739509E-02  0.91346965E-02
 -0.64486724E-02 -0.15245381E-02 -0.12701978E-01
 -0.49879270E-02  0.79463759E-02 -0.24807440E-02
  0.18276781E-01 -0.10508440E-01 -0.30236689E-02
 -0.21161406E-02 -0.75455393E-02 -0.22268429E-02
  0.16665686E-02 -0.11586841E-02 -0.25963541E-02
 -0.52497259E-02  0.36367370E-02  0.90331113E-03
  0.36116757E-03 -0.83423843E-03  0.13832565E-02
 -0.10861808E-01  0.94084586E-03 -0.58416076E-02
  0.47931845E-03  0.12836675E-01 -0.30106170E-02
  0.11970414E-02 -0.87126011E-02 -0.13017103E-01
 -0.11144525E-03  0.42033767E-03  0.45100218E-02
  0.14171481E-02 -0.34063790E-02  0.56395041E-02
  0.32501354E-03 -0.28727335E-02 -0.99202335E-04
 -0.81821157E-02 -0.31403731E-02  0.51058731E-02
 -0.93551328E-02 -0.24377985E-02 -0.54392913E-02
  0.83502169E-03  0.16088444E-01 -0.12002257E-02
  0.75113644E-02 -0.14716520E-01  0.90592917E-02
  0.62677431E-02  0.34008362E-03  0.41415319E-02
 -0.21088775E-02  0.48193309E-02  0.10656474E-01
  0.30869081E-02  0.14648891E-02 -0.13823596E-02
  0.39474560E-03  0.18713602E-02  0.69077964E-02
  0.27930071E-02  0.57980558E-02 -0.48787018E-02
 -0.51515523E-02 -0.54428409E-02 -0.90025028E-02
  0.13049340E-01  0.29016122E-02 -0.31802101E-02
 -0.25089269E-02 -0.11189445E-01  0.45271431E-02
 -0.26497657E-02 -0.98429870E-02  0.24653459E-02
  0.30378404E-02 -0.95888314E-02  0.97734135E-02
  0.11073542E-02  0.32404889E-02  0.10070957E-02
 -0.26270384E-02  0.69895649E-02  0.24079812E-02
  0.45636142E-02 -0.10361515E-01 -0.55150132E-02
  0.26560535E-02 -0.10566396E-02  0.92193095E-02
  0.10330418E-01 -0.93489853E-02 -0.48015871E-02
 -0.10390152E-02  0.33772417E-02 -0.16852222E-01
  0.50029834E-03  0.52684521E-02  0.11427328E-01
 -0.10845586E-02  0.24884458E-03  0.17724455E-01
 -0.68831627E-02  0.63704536E-02  0.71809398E-03
  0.24813157E-02  0.59867457E-02 -0.91084514E-02
 -0.14692513E-01 -0.22092381E-02 -0.79472542E-02
 -0.18604457E-02  0.34116783E-02 -0.12246421E-01
  0.32465142E-02  0.78186465E-02  0.27276757E-02
 -0.12744565E-03  0.55301272E-02 -0.14509633E-02
 -0.16046265E-01 -0.12658901E-01  0.11662906E-01
  0.78323683E-02 -0.77138113E-02  0.29813125E-02
 -0.64815547E-03  0.57359699E-02 -0.10870665E-01
  0.31182822E-02 -0.81276774E-02  0.47437165E-02
 -0.36128519E-02 -0.12866670E-02 -0.10060595E-02
 -0.29936554E-02 -0.73574160E-02  0.63720067E-02
 -0.62012711E-02 -0.65707040E-02  0.53611366E-02
  0.44815012E-02 -0.11780766E-01  0.12976876E-01
 -0.43916362E-02  0.15459087E-01  0.91950903E-02
 -0.49792803E-02  0.56341480E-02 -0.45198808E-02
  0.89334914E-02 -0.10026637E-01  0.50329161E-02
 -0.76972798E-02  0.72544953E-02  0.47504073E-02
 -0.92572166E-02  0.29841775E-02  0.16994957E-01
  0.13727081E-01 -0.44258619E-02 -0.26657723E-02
 -0.27855856E-02 -0.97233913E-02  0.18161117E-02
  0.55671745E-02  0.44588400E-03  0.68875540E-02
  0.47823427E-02 -0.16316880E-01 -0.74653166E-02
 
           1
   1.00000000000000     
  0.44093643E+00  0.23121113E-03 -0.15239376E-03  0.00000000E+00
  0.99187365E+00  0.15513869E-03  0.12382623E-02
  0.16351903E+00  0.16791448E+00  0.17195989E+00
  0.49991629E+00  0.15987912E+00  0.16755894E+00
  0.67295409E+00  0.99556350E+00  0.99319351E+00
  0.83256496E+00  0.17025360E+00  0.17918235E+00
  0.99789073E+00  0.33117008E+00  0.28955452E-02
  0.16876631E+00  0.49967487E+00  0.17285490E+00
  0.33397940E+00  0.32297978E+00  0.99334533E+00
  0.49430565E+00  0.47984235E+00  0.16537836E+00
  0.67666740E+00  0.33202686E+00  0.98305066E+00
  0.83324851E+00  0.50314861E+00  0.16901896E+00
  0.13863311E-01  0.66674846E+00  0.12582056E-01
  0.16225138E+00  0.82241559E+00  0.18216479E+00
  0.33518719E+00  0.65563850E+00  0.82808419E-02
  0.48419629E+00  0.83632000E+00  0.16489912E+00
  0.65094994E+00  0.66030132E+00  0.98556169E+00
  0.82565922E+00  0.82805705E+00  0.16125903E+00
  0.99406894E+00  0.37707867E-02  0.33323068E+00
  0.17184153E+00  0.17423709E+00  0.50338100E+00
  0.33127986E+00  0.48301724E-02  0.32967545E+00
  0.50280334E+00  0.16409061E+00  0.50058796E+00
  0.67665898E+00  0.99502647E+00  0.33243032E+00
  0.84400486E+00  0.18257648E+00  0.49938901E+00
  0.43387164E-02  0.33624354E+00  0.32361938E+00
  0.17099692E+00  0.50000126E+00  0.49778002E+00
  0.34348069E+00  0.33109405E+00  0.33368118E+00
  0.50596940E+00  0.49670283E+00  0.49947047E+00
  0.67525615E+00  0.33143146E+00  0.32279422E+00
  0.83180193E+00  0.49300076E+00  0.49559016E+00
  0.99539323E+00  0.66515451E+00  0.33624832E+00
  0.15905711E+00  0.83021285E+00  0.49643500E+00
  0.34031666E+00  0.66079321E+00  0.33363067E+00
  0.49074333E+00  0.83491426E+00  0.50173279E+00
  0.65001243E+00  0.66280622E+00  0.34154623E+00
  0.82998334E+00  0.83023075E+00  0.50436631E+00
  0.39373884E-02  0.98474823E+00  0.66592627E+00
  0.15170448E+00  0.16938057E+00  0.82598953E+00
  0.33404621E+00  0.10099968E-01  0.66471642E+00
  0.51021138E+00  0.17941197E+00  0.83094019E+00
  0.66439348E+00  0.13331609E-02  0.67457330E+00
  0.84134442E+00  0.17006768E+00  0.83948435E+00
  0.99738190E+00  0.33832013E+00  0.66535494E+00
  0.17339150E+00  0.49869288E+00  0.84710636E+00
  0.33859973E+00  0.33003310E+00  0.64947625E+00
  0.49521903E+00  0.49327687E+00  0.83026076E+00
  0.67035696E+00  0.34639765E+00  0.65821807E+00
  0.84110870E+00  0.50633417E+00  0.84004208E+00
  0.99658794E+00  0.66320894E+00  0.67630579E+00
  0.17004722E+00  0.83409359E+00  0.81855207E+00
  0.32438573E+00  0.67161272E+00  0.66161905E+00
  0.49403212E+00  0.83041221E+00  0.84094389E+00
  0.66575811E+00  0.65916389E+00  0.65695332E+00
  0.83552765E+00  0.82849493E+00  0.84367217E+00
  0.34042173E+00  0.24318344E-01  0.99445473E+00
  0.99719535E-01  0.10487971E+00  0.10668767E-01
  0.23647770E+00  0.23079411E+00  0.99037905E+00
  0.66080871E-01  0.26352541E+00  0.16337462E+00
  0.27749605E+00  0.75868190E-01  0.18106700E+00
  0.46175386E+00  0.10607063E+00  0.99449668E+00
  0.56961469E+00  0.24497104E+00  0.98934021E+00
  0.41067577E+00  0.26967492E+00  0.18202762E+00
  0.61570012E+00  0.60982913E-01  0.16992264E+00
  0.77496212E+00  0.10594045E+00  0.81734949E-02
  0.89740476E+00  0.23903618E+00  0.76874835E-02
  0.71147741E+00  0.26919558E+00  0.15983923E+00
  0.92430622E+00  0.57585101E-01  0.16288452E+00
  0.95765677E-01  0.44460037E+00  0.75549457E-02
  0.21651294E+00  0.57481774E+00  0.14625128E-01
  0.72175940E-01  0.61873047E+00  0.17854208E+00
  0.26949453E+00  0.38513104E+00  0.17546179E+00
  0.43544789E+00  0.42791967E+00  0.99679662E+00
  0.55045916E+00  0.56278450E+00  0.99643169E+00
  0.39490234E+00  0.59500762E+00  0.16382680E+00
  0.61582797E+00  0.39842866E+00  0.16291835E+00
  0.77074426E+00  0.43862359E+00  0.82079626E-02
  0.90667487E+00  0.56610596E+00  0.75665399E-02
  0.72316522E+00  0.59479430E+00  0.16178193E+00
  0.93564027E+00  0.40249368E+00  0.18193548E+00
  0.12146281E+00  0.78597850E+00  0.16794323E-02
  0.64286143E-01  0.92533088E+00  0.16289206E+00
  0.27187131E+00  0.72618421E+00  0.16711996E+00
  0.43187930E+00  0.75896551E+00  0.99689895E+00
  0.54529858E+00  0.90455947E+00  0.65715078E-02
  0.38708681E+00  0.93555964E+00  0.16939277E+00
  0.59890402E+00  0.72579823E+00  0.15923013E+00
  0.75715098E+00  0.77037402E+00  0.29511290E-02
  0.88839660E+00  0.89517738E+00  0.99958001E+00
  0.73351467E+00  0.93720562E+00  0.15949581E+00
  0.94375133E+00  0.74617352E+00  0.16556474E+00
  0.10474230E+00  0.10716588E+00  0.34780230E+00
  0.24246738E+00  0.22823976E+00  0.34744559E+00
  0.63001712E-01  0.28014838E+00  0.50336747E+00
  0.26492492E+00  0.66361461E-01  0.50054698E+00
  0.42947858E+00  0.10263829E+00  0.31879401E+00
  0.57093518E+00  0.22773997E+00  0.35459739E+00
  0.40057225E+00  0.26358398E+00  0.49213359E+00
  0.58649745E+00  0.47486064E-01  0.50129329E+00
  0.75927944E+00  0.11557022E+00  0.34599729E+00
  0.91155294E+00  0.22936411E+00  0.32305138E+00
  0.74949217E+00  0.28739182E+00  0.49500358E+00
  0.92907642E+00  0.67324113E-01  0.49191456E+00
  0.12194070E+00  0.41942610E+00  0.32817784E+00
  0.23145883E+00  0.56760642E+00  0.33793900E+00
  0.70818986E-01  0.61425043E+00  0.49951365E+00
  0.28322165E+00  0.40744235E+00  0.50289884E+00
  0.43389116E+00  0.43919511E+00  0.33815592E+00
  0.55171811E+00  0.57038764E+00  0.33642930E+00
  0.38649949E+00  0.59021005E+00  0.50141332E+00
  0.62590159E+00  0.41577052E+00  0.49912931E+00
  0.76196836E+00  0.44749216E+00  0.32980584E+00
  0.89538588E+00  0.56773348E+00  0.33656279E+00
  0.74320642E+00  0.61172378E+00  0.49872101E+00
  0.93018770E+00  0.38877228E+00  0.47651027E+00
  0.10016423E+00  0.77162790E+00  0.32789111E+00
  0.22877556E+00  0.89415821E+00  0.33340173E+00
  0.56075875E-01  0.92817206E+00  0.50160166E+00
  0.26804683E+00  0.73019313E+00  0.49371056E+00
  0.43683602E+00  0.75822366E+00  0.32631577E+00
  0.55314114E+00  0.89724625E+00  0.33937440E+00
  0.39057651E+00  0.93968672E+00  0.49236045E+00
  0.58379465E+00  0.71686670E+00  0.50981864E+00
  0.77002320E+00  0.74951995E+00  0.34601340E+00
  0.89168771E+00  0.89750001E+00  0.33038330E+00
  0.72534719E+00  0.92890309E+00  0.50991283E+00
  0.94018966E+00  0.74698715E+00  0.50664222E+00
  0.95063239E-01  0.11310188E+00  0.66299947E+00
  0.23308215E+00  0.24054131E+00  0.66020645E+00
  0.56987234E-01  0.26848044E+00  0.82333314E+00
  0.24722938E+00  0.63079931E-01  0.83972677E+00
  0.43714013E+00  0.10689413E+00  0.68054064E+00
  0.56133813E+00  0.24579098E+00  0.65709933E+00
  0.39823011E+00  0.26086960E+00  0.83476987E+00
  0.60136145E+00  0.60330607E-01  0.83668878E+00
  0.76898586E+00  0.10707468E+00  0.66361607E+00
  0.89520519E+00  0.24925144E+00  0.67647819E+00
  0.73681245E+00  0.27096830E+00  0.82456098E+00
  0.94165612E+00  0.68293606E-01  0.82874278E+00
  0.10866148E+00  0.43126671E+00  0.66070424E+00
  0.21038165E+00  0.57739900E+00  0.68751825E+00
  0.63051033E-01  0.59812589E+00  0.84160493E+00
  0.28195846E+00  0.39938482E+00  0.83495936E+00
  0.43974082E+00  0.43845727E+00  0.66658283E+00
  0.55391565E+00  0.57417024E+00  0.67695420E+00
  0.38738290E+00  0.58989048E+00  0.82627105E+00
  0.59971676E+00  0.38939638E+00  0.83928131E+00
  0.76431909E+00  0.44025216E+00  0.67006187E+00
  0.91222522E+00  0.55150437E+00  0.64941107E+00
  0.72279570E+00  0.58771053E+00  0.83055184E+00
  0.93431151E+00  0.40043863E+00  0.83340233E+00
  0.93662562E-01  0.77215313E+00  0.67271298E+00
  0.22538962E+00  0.89899249E+00  0.66029041E+00
  0.64479456E-01  0.94002304E+00  0.84456908E+00
  0.27181404E+00  0.73122089E+00  0.83603824E+00
  0.43273492E+00  0.76439021E+00  0.67549562E+00
  0.55791197E+00  0.89813444E+00  0.65997012E+00
  0.37202629E+00  0.92417798E+00  0.82357039E+00
  0.60349587E+00  0.73530645E+00  0.82639144E+00
  0.77977201E+00  0.74793013E+00  0.68348388E+00
  0.88748200E+00  0.90682744E+00  0.67039220E+00
  0.72982262E+00  0.92791171E+00  0.82950075E+00
  0.93752620E+00  0.72806487E+00  0.86490680E+00
  0.66471667E-04  0.23798556E-03 -0.29122022E-04
  0.16365877E-03 -0.44458627E-05  0.19764046E-03
  0.16967058E-03  0.14209230E-03 -0.33476667E-03
  0.14655981E-03 -0.54527045E-04  0.29390318E-03
 -0.56132737E-04  0.54379507E-04  0.52025911E-03
  0.42821074E-04  0.42270345E-03  0.27265931E-03
 -0.31450043E-04  0.29847182E-03 -0.44218665E-03
 -0.23819291E-03 -0.57350741E-04  0.23341680E-03
 -0.13326091E-04 -0.20704883E-03 -0.21618393E-03
  0.15255623E-03  0.27783316E-04  0.37182634E-03
 -0.10897916E-03 -0.13645656E-03 -0.39110016E-03
  0.14982801E-04 -0.99394984E-05  0.26658597E-03
 -0.53103266E-04 -0.74550538E-04 -0.69313607E-04
 -0.49081770E-04  0.15613037E-03  0.87794036E-04
  0.90198176E-04 -0.12783796E-03  0.60457615E-04
  0.54071994E-04 -0.62505924E-04  0.19903602E-03
 -0.30878009E-03 -0.64109560E-04 -0.28372235E-03
 -0.33715026E-03  0.10788233E-03 -0.66504044E-04
  0.41090582E-04 -0.54878936E-04 -0.82598582E-04
 -0.57835929E-04  0.16818541E-03 -0.40361776E-03
 -0.20818041E-03  0.15756161E-03 -0.15655273E-03
  0.30108345E-03 -0.30243636E-03 -0.10929025E-03
  0.12316722E-03 -0.19198717E-03 -0.16505697E-03
 -0.22257496E-04  0.65604010E-04  0.13091031E-04
  0.26374085E-03 -0.21308753E-03 -0.59100037E-03
  0.11592851E-03 -0.61518777E-04  0.10135683E-03
  0.16434320E-04  0.15299753E-03  0.60540666E-04
  0.67522560E-04 -0.46080410E-05 -0.87883120E-04
  0.12328597E-03  0.26864515E-04  0.68097553E-04
  0.14993731E-03  0.86175895E-04 -0.23638290E-03
 -0.19952825E-04 -0.52005571E-04  0.18884980E-04
  0.12322364E-03 -0.65672893E-04 -0.34180708E-03
  0.30385396E-03  0.13960509E-03 -0.39977599E-04
 -0.10696274E-03 -0.12921213E-03  0.21705095E-03
 -0.41695751E-04  0.28492130E-03 -0.70747623E-04
  0.12754886E-03 -0.21869000E-04 -0.24802886E-04
 -0.14447292E-03  0.35346820E-04 -0.18750017E-03
  0.13596428E-03  0.55724720E-04  0.24674265E-03
 -0.76954269E-04 -0.64911312E-04  0.20512141E-03
  0.65504592E-04 -0.69248285E-04  0.35507585E-03
 -0.20985990E-03 -0.28202316E-03  0.27192510E-04
 -0.19004132E-04 -0.11920080E-04  0.14824293E-04
  0.19033063E-04 -0.24860971E-03 -0.76856166E-04
 -0.10391397E-03 -0.29526965E-03  0.65105696E-04
 -0.10057565E-03 -0.16230120E-03  0.63258897E-04
  0.15413269E-03 -0.11392153E-03 -0.14114544E-03
 -0.44723855E-04 -0.11180033E-03  0.54696634E-04
 -0.26220150E-03  0.12299409E-03  0.14741983E-03
  0.17376506E-03  0.15309729E-03  0.25755675E-03
 -0.14708611E-03  0.26370546E-03 -0.39541664E-04
  0.14720828E-03  0.26213643E-03 -0.11743696E-03
  0.13984022E-03  0.18820371E-03 -0.40374765E-03
  0.71546047E-04  0.24808211E-03 -0.20356742E-03
 -0.58199778E-04  0.15116765E-03 -0.11055176E-03
 -0.14472942E-03 -0.91186983E-04  0.18946316E-03
  0.56759461E-03  0.41929511E-03 -0.33820928E-03
 -0.66730499E-04 -0.75874614E-03  0.10987461E-02
 -0.20229648E-03 -0.10299513E-03  0.44187750E-03
 -0.59505190E-03  0.23527077E-03 -0.54251217E-03
 -0.43163437E-03 -0.13955048E-03 -0.91095814E-03
 -0.25565125E-03 -0.41873693E-03 -0.38595853E-03
  0.40688525E-03  0.14548719E-03  0.80711416E-03
  0.95740936E-03  0.88298837E-04 -0.18383464E-05
  0.14097125E-03 -0.88571679E-04 -0.51869314E-03
 -0.10336132E-02  0.81825777E-04 -0.89487663E-03
 -0.12175243E-02 -0.11863512E-03 -0.33123487E-03
 -0.27471090E-04 -0.68290629E-03  0.15113728E-03
 -0.69728436E-03  0.55768953E-03  0.83816407E-03
  0.11748662E-02  0.26172107E-04  0.42542835E-03
  0.81629311E-03  0.16912622E-03  0.73923657E-03
 -0.22942937E-03  0.68374088E-03 -0.23516128E-03
 -0.29591662E-03  0.22102515E-03  0.44414945E-04
  0.27738749E-03  0.53587274E-03 -0.50504761E-03
 -0.44767942E-03  0.95983373E-04  0.11888710E-03
 -0.19061857E-03 -0.29335865E-03  0.20177964E-03
  0.10297298E-03 -0.61842282E-03  0.79931387E-03
 -0.48791926E-04 -0.82392717E-04 -0.71535170E-03
 -0.13553893E-03  0.33106595E-03  0.52724283E-03
  0.52771775E-03 -0.11131049E-02 -0.38578326E-03
 -0.31991391E-03 -0.24967951E-03  0.70255125E-03
 -0.17120847E-03  0.47754792E-03 -0.91668248E-03