CONTCAR-qvdai                           
   1.00000000000000     
    14.4743895367443027    0.0112378294299857    0.0000000000000000
     0.0112378316792506   14.4743840573675850    0.0000000000000000
     0.0000000000000000    0.0000000000000000    9.7934198193542592
   Sn   Pb   O 
    53     1   107
Direct
  0.9989302547828820  0.0060381069860172  0.0061807047785862
  0.1649348222244551  0.1598419785191081  0.1695505737854281
  0.4930234106021766  0.1656713994210730  0.1693460323384759
  0.6634713986733336  0.9954554470009528  0.9937165774186448
  0.8345195987035809  0.1568024844316005  0.1703451752112301
  0.9971817898661652  0.3310970932885436  0.9967774644492396
  0.1711523013546623  0.4894687791445743  0.1674535796019722
  0.3325096723112487  0.3424813242381292  0.9820200056133171
  0.4906184554362181  0.4979935642262999  0.1663411369439826
  0.6737625063356596  0.3343941319993728  0.0078505839864066
  0.8299363611322434  0.4973238408381437  0.1676853184163139
  0.9920932021294896  0.6556770586857189  0.0171711364521967
  0.1583589692493412  0.8266657830118724  0.1922892863486194
  0.3359476042831724  0.6740547086442298  0.9922265291356898
  0.5021056109729383  0.8351867450327390  0.1672837928949140
  0.6700412674272704  0.6568647590937974  0.9959007526385319
  0.8287509905681140  0.8458878723231857  0.1519092524654220
  0.0054620915466161  0.0051268483623308  0.3358829124156462
  0.1631758033000573  0.1684232946419497  0.5126074446688813
  0.3333983266429352  0.9978687520477953  0.3413918999684872
  0.5115767087628313  0.1686527169909506  0.5020376801069635
  0.6660120245331617  0.9992192518542183  0.3383469494698940
  0.8387391368842981  0.1590222864038814  0.4956110568443913
  0.0012549549158675  0.3268374712121305  0.3280713454636603
  0.1593069006810929  0.4981433520541815  0.5021476857876888
  0.3349972463794476  0.3263272538409648  0.3269775901891034
  0.4923149810248189  0.4944870614641537  0.5006378235143970
  0.6723113728222226  0.3325176964320115  0.3313160183987309
  0.8226246268653326  0.5058217129226754  0.4969476858295894
  0.9887080756475710  0.6718035582171131  0.3411651124048894
  0.1661930034573526  0.8249740494918972  0.5094801315096651
  0.3353491995390448  0.6624282920271068  0.3358308825864161
  0.5091414091345271  0.8382629060158788  0.4987879320558778
  0.6538457719168520  0.6778413403939453  0.3223325690314683
  0.8214407360399612  0.8395977437024352  0.4966809771680629
  0.0071728513027882  0.0015049356326777  0.6714969273812439
  0.1808564951821462  0.1729141615510654  0.8309230684657968
  0.3356436843158579  0.9852214125521865  0.6605105689773534
  0.5059166741525682  0.1690962017654578  0.8415507907803835
  0.6645672664765433  0.0028100250858543  0.6521614352137913
  0.8316440722487716  0.1714353658410522  0.8261687869951394
  0.9998360324244030  0.3456372468489011  0.6742752007054473
  0.1755545730300485  0.5121462792070873  0.8300277649229960
  0.3366309717020542  0.3367189864155199  0.6511856957984499
  0.5017362720681400  0.5024042405948943  0.8258220192238679
  0.6712702731629416  0.3329059494794711  0.6750124345369521
  0.8199185196299573  0.4918623770658990  0.8279481967454676
  0.9889101461416618  0.6726742550663787  0.6892313808907128
  0.1659089935506363  0.8263451063251854  0.8426855062857500
  0.3310044978128664  0.6621055038777484  0.6562769336177113
  0.5007071515725363  0.8304219254340559  0.8274061030003583
  0.6691662162834894  0.6669085117411732  0.6675084904371266
  0.8320475013317936  0.8399308429472361  0.8335798304401386
  0.3388977442436898  0.9977404666274229  0.9977710008505808
  0.1133978105136758  0.1044025620400680  0.9892052867444387
  0.2439790301117437  0.2315150112297783  0.0012217518692660
  0.0822181606632382  0.2707236449201813  0.1561073131828887
  0.2601724865864093  0.0534635814688410  0.1678991403596350
  0.4232737716382697  0.1235531078518609  0.9967845731584617
  0.5711669727840024  0.2265773122111767  0.0042461121580329
  0.4166999609197632  0.2865241739061686  0.1522639628350239
  0.5959258124212422  0.0565424655270597  0.1819586049967773
  0.7683125406863199  0.1058901525948508  0.9884722829469639
  0.9052574537380987  0.2259609525358365  0.0127324598217382
  0.7405995573753307  0.2657304218035931  0.1693708159494664
  0.9418270032064143  0.0660026687739130  0.1788486464599341
  0.1124789636267791  0.4310444640144427  0.9988265606939418
  0.2398596620751204  0.5620001909962995  0.0028213341294253
  0.0661153486523596  0.6039057006359652  0.1572253227025739
  0.2791439176296950  0.4068625482528596  0.1566868188694749
  0.4508806131058793  0.4290204362499375  0.9909944613818307
  0.5596385323184805  0.5687238619730796  0.9993597084539261
  0.3983218695030650  0.6044048380966666  0.1794505952658230
  0.6074004363694130  0.4096418921982932  0.1808608270815255
  0.7624415494247079  0.4411295601645905  0.0070310147782192
  0.8828408308755439  0.5663149471627852  0.9929087634449933
  0.7187795025387781  0.5900589506291043  0.1773101880858066
  0.9346995721226727  0.3891754478891586  0.1592684527053976
  0.1072468356256093  0.7753962361565014  0.0082604098192714
  0.0713974335415318  0.9418183400359706  0.1719032684654304
  0.2763348578124099  0.7472139780185827  0.1451411499684445
  0.4361617845944257  0.7748293208405598  0.9976550230116581
  0.5672448661655178  0.8873896779698334  0.9924046569127775
  0.3888254441716787  0.9166530214222439  0.1754680997935581
  0.5940709284754208  0.7230915969543534  0.1463616057455862
  0.7644715090555917  0.7696217219998261  0.9900129533262766
  0.8970480392444174  0.9033480651418485  0.9941544293778927
  0.7401813974540213  0.9504802008248050  0.1569736343387914
  0.9451191334099203  0.7344095515493929  0.1598278286126926
  0.0954747158474760  0.1057282499908119  0.3358345354022166
  0.2311097829829112  0.2283233349001811  0.3318422148896892
  0.0663190976858093  0.2737221612663098  0.5119412560765537
  0.2604925090803100  0.0649607756371680  0.5028563366024315
  0.4259611166220363  0.0978504719347720  0.3184590786175615
  0.5806734990932427  0.2236608360020767  0.3376286717054200
  0.4055345035763772  0.2663177726232770  0.4860960933550892
  0.5938555853349983  0.0565919987376518  0.4983264301645812
  0.7690861056662134  0.0996926346178546  0.3243469811473335
  0.8966044008411516  0.2268099388626605  0.3267976134120806
  0.7259823298058716  0.2530977899414374  0.5041255405175069
  0.9298236672668753  0.0535587203924159  0.4959975457428610
  0.1055058982266905  0.4368349687398552  0.3308959471053211
  0.2409898698131318  0.5596620608078716  0.3303916084878513
  0.0533680113657424  0.6160669149197452  0.4992229162835644
  0.2693648506546697  0.3957938571106429  0.4914791758146035
  0.4243355275812101  0.4327664121286785  0.3333685262096754
  0.5609277002745824  0.5702849057152349  0.3413330783240747
  0.4170701298906028  0.6153172440221528  0.5031289822214201
  0.6140327907515255  0.4023289554027198  0.5120122023611409
  0.7769816454946604  0.4295693644335019  0.3270605650328292
  0.8816866699095075  0.5739039804622131  0.3270992881213075
  0.7207678582346452  0.6062006880962045  0.4971126832427039
  0.9478198705901113  0.4089874558583829  0.4961546185506622
  0.0848533705399021  0.7764284208711612  0.3384324689667602
  0.2429067527609364  0.8823044060371653  0.3516299021962327
  0.0757677639333804  0.9439950058643151  0.5072632905836707
  0.2552009039487053  0.7160625918459772  0.4990853311662531
  0.4447182354061539  0.7667681836492123  0.3422313495462345
  0.5692706629675958  0.9033928167991250  0.3372051950109210
  0.4003894637761497  0.9240071484257548  0.4963313167271792
  0.6205635916972143  0.7528648417357977  0.5100304275519508
  0.7610802100774881  0.7811564721049885  0.3126003845809753
  0.9034381288391621  0.8998529848892625  0.3227062983681042
  0.7254168541847296  0.9306927264574613  0.4951079267326662
  0.9116285982821326  0.7324972866892259  0.4979024946012068
  0.1107468387372404  0.1002523080175900  0.6705015691986704
  0.2343827412971859  0.2449684410146780  0.6635405355696342
  0.0611109746709751  0.2662719266469757  0.8300096760210034
  0.2538496359651212  0.0422703840749178  0.8304853429978862
  0.4313767849725532  0.0945059292836403  0.6585979481720798
  0.5698343888580154  0.2277594098879496  0.6758940763585468
  0.3967506318149960  0.2736261161708973  0.8227085953687747
  0.5981035504770867  0.0619909492989373  0.8264359318837178
  0.7733370209431224  0.1000085389321824  0.6677111309415216
  0.8980236557059100  0.2338321873954461  0.6687592665449344
  0.7500889819678609  0.2859504302566165  0.8373665436652973
  0.9290456504354885  0.0728018507695881  0.8355217262398312
  0.0943971786040294  0.4526546752179479  0.6678641071199980
  0.2380965913829942  0.5620360902425875  0.6638489929535625
  0.0742604067486489  0.6182586736130032  0.8444449298477033
  0.2718267749666070  0.4031428343425118  0.8124879427507881
  0.4303943122480662  0.4282150250019162  0.6650992019326715
  0.5728239287744288  0.5585697223214017  0.6663862289093859
  0.4003339554485063  0.5999748897138406  0.8347290135716886
  0.6184056820334791  0.4086105526594072  0.8468267970732256
  0.7835957140244389  0.4162347439998709  0.6452567935529243
  0.8862531926661446  0.5617742473848000  0.6839560000043119
  0.7310641874087979  0.5983850245769259  0.8387725839411311
  0.9339948641759065  0.3989364022325979  0.8406658386689654
  0.1059034027904270  0.7640981956355382  0.6754501625404402
  0.2387817028787375  0.8882469491595724  0.6654805741936195
  0.0646955430177013  0.9287122379360389  0.8487500658386192
  0.2756922970414720  0.7338088665672328  0.8283955813845718
  0.4313702749651539  0.7711346216847712  0.6705748105638604
  0.5762355631957550  0.9024866504209561  0.6741520963277979
  0.3988218332478194  0.9309562559673263  0.8239467841231698
  0.6071614433367805  0.7348229057615374  0.8326600672503839
  0.7727278716486993  0.7751198405674073  0.6643949369491496
  0.9034824131846289  0.8942783937659134  0.6674517677884583
  0.7334015690053343  0.9424831562987019  0.8202931793623324
  0.9320051927699490  0.7458936494862031  0.8409775133732715
 
 -0.16950649E-02  0.33432963E-02  0.24112847E-03
  0.42407883E-02  0.32193093E-02  0.36465378E-02
  0.44989886E-02 -0.29623103E-02 -0.39072321E-02
 -0.24873177E-02 -0.22994618E-02  0.33400396E-03
  0.59666230E-03  0.33739053E-02 -0.38745623E-02
  0.13924596E-03 -0.26651318E-02 -0.35205877E-02
  0.20659938E-02 -0.32177638E-02 -0.33561584E-02
  0.89379715E-03 -0.20349694E-03 -0.81111548E-03
 -0.23695881E-02 -0.31793939E-02 -0.39387989E-02
  0.12269064E-03  0.18148657E-02  0.14155248E-02
  0.20741694E-02 -0.82485224E-03  0.68862639E-03
 -0.24570949E-02 -0.33159937E-05 -0.10647072E-02
  0.35394680E-02  0.14815393E-02 -0.40282306E-02
  0.28820145E-03 -0.38817333E-02  0.32260966E-02
 -0.14341124E-02  0.23761324E-02 -0.21048855E-02
 -0.29536686E-03 -0.15397184E-03 -0.11753001E-02
 -0.37298048E-02  0.57963105E-02 -0.14045394E-02
 -0.14891557E-02 -0.39296927E-02 -0.34537282E-02
 -0.16299978E-02  0.10922495E-02 -0.28781298E-02
  0.13291125E-02  0.35425930E-02 -0.47396780E-03
 -0.23006601E-02  0.43241353E-03 -0.95055493E-03
  0.31653656E-02 -0.19883878E-03  0.70496573E-04
  0.81159604E-03  0.11601321E-03  0.44988440E-02
 -0.27709159E-03  0.18092195E-03 -0.82480468E-03
 -0.36374521E-02 -0.24793737E-03 -0.11172760E-02
  0.71876896E-03  0.22914918E-02  0.50439896E-02
  0.31089599E-02 -0.42909659E-02  0.24811768E-03
 -0.13455010E-02  0.65374318E-03  0.41689131E-02
  0.17105806E-02  0.73074331E-03  0.37819493E-02
 -0.34614116E-03  0.29979033E-02 -0.37264903E-02
 -0.41868332E-02 -0.29423013E-02  0.36869491E-02
  0.11085730E-02  0.30533842E-02  0.19355428E-02
  0.29048711E-02  0.17731402E-02  0.78766574E-03
  0.16680785E-03 -0.60802653E-03 -0.61028207E-03
  0.11974852E-02 -0.46544718E-02  0.32047218E-03
 -0.28220339E-02  0.28871750E-02 -0.13062524E-03
  0.29902684E-03  0.41010920E-02 -0.58315539E-02
  0.41251578E-02  0.15419365E-02  0.31189144E-02
 -0.25172026E-02 -0.17596407E-02 -0.29811962E-02
  0.31194995E-02 -0.23320470E-02 -0.30846281E-03
 -0.10011740E-02 -0.26649072E-02  0.30652673E-02
 -0.18112462E-02 -0.33718544E-03  0.17673325E-02
 -0.11860595E-02  0.44131903E-02  0.27564523E-03
 -0.16677286E-02 -0.14155284E-02  0.12803063E-02
 -0.18218021E-02  0.13666168E-02  0.34391981E-02
 -0.11524217E-03  0.46604126E-03 -0.26051661E-02
  0.15825039E-02  0.38296771E-03  0.17602616E-02
  0.15219941E-02 -0.30705987E-02  0.47810960E-02
 -0.33943102E-02  0.31190883E-03 -0.47439232E-04
 -0.26627136E-02 -0.34606795E-03 -0.12849911E-02
  0.25129582E-02 -0.28735399E-02  0.28435084E-02
 -0.92843853E-04  0.15451548E-02  0.23465029E-02
  0.24398435E-02  0.26535555E-02  0.25102100E-02
 -0.20608884E-02  0.12279032E-02 -0.13960133E-02
  0.31416327E-02 -0.16463698E-03 -0.21068438E-03
 -0.11879067E-01  0.20168303E-02 -0.16586399E-02
 -0.12083254E-02  0.52649727E-02 -0.28068326E-02
 -0.84041157E-02  0.33041240E-02  0.51246587E-02
  0.17934938E-01  0.39262458E-02 -0.14675005E-01
  0.89498098E-03  0.49352148E-02 -0.15333763E-01
 -0.36044050E-04 -0.30440774E-03  0.12635671E-02
 -0.16057672E-02 -0.63164251E-03 -0.89945710E-02
  0.36102644E-03 -0.12159778E-01 -0.36342493E-02
 -0.76543895E-02 -0.30409109E-02  0.42737830E-02
 -0.47740766E-02 -0.51046682E-02  0.27767783E-02
  0.91690078E-02  0.89492627E-03 -0.30307113E-02
  0.14877385E-01 -0.34596565E-02  0.19551866E-02
 -0.52890656E-02 -0.40055124E-02 -0.83566300E-02
  0.27822776E-03 -0.15541327E-02  0.10723600E-01
 -0.27647403E-02 -0.11676866E-01 -0.12623729E-01
 -0.16279585E-02 -0.24946590E-02  0.49265091E-02
  0.12990807E-01 -0.11416172E-01  0.49914053E-02
 -0.71143882E-03  0.65682751E-02 -0.44782196E-02
  0.89983547E-02 -0.24544026E-03  0.33910087E-02
  0.14079917E-02 -0.12826250E-01 -0.43149552E-02
 -0.75230915E-02 -0.16376171E-02 -0.27338546E-02
 -0.30293488E-04 -0.51367921E-02 -0.35457929E-02
  0.10989902E-01 -0.10951756E-02  0.56974956E-02
 -0.55091518E-02  0.47129091E-02 -0.29846382E-02
 -0.44114542E-04 -0.13904800E-01 -0.34047513E-02
  0.65122206E-02  0.10325759E-02 -0.20873519E-02
 -0.87005282E-02  0.46749369E-03 -0.66984907E-02
 -0.14281412E-03  0.28683434E-02 -0.19483018E-02
 -0.79010289E-02 -0.82860425E-02  0.47289889E-02
  0.37202765E-02  0.90112197E-03  0.30611041E-02
 -0.16407308E-02 -0.13633671E-02 -0.22114707E-02
 -0.83020204E-02  0.57140780E-02 -0.35184677E-02
  0.69361209E-02  0.10193348E-01  0.11812430E-02
 -0.23085513E-02 -0.14915651E-02  0.11170731E-01
  0.35186532E-03 -0.11030840E-02  0.12991813E-01
 -0.36793710E-02  0.39883251E-02 -0.44646524E-02
 -0.55042386E-02  0.80491570E-02  0.32373375E-02
  0.14565345E-02 -0.14084776E-01 -0.44445529E-02
  0.44938226E-02  0.30031545E-03  0.61055241E-02
 -0.84143600E-02  0.67369764E-02  0.37085669E-02
 -0.35257556E-02  0.36895740E-02 -0.38572268E-02
  0.11537845E-01 -0.51386191E-02 -0.76304943E-02
  0.12349111E-01 -0.10066569E-01  0.27155700E-02
  0.18161538E-02  0.34836591E-02 -0.49854304E-02
 -0.60035597E-02 -0.70715190E-02  0.10465158E-02
 -0.11806508E-01 -0.51479527E-02  0.47492554E-04
 -0.10620540E-01  0.34416487E-02 -0.51819031E-02
 -0.57921943E-02 -0.76618106E-02  0.77310571E-02
  0.12468967E-01 -0.14046669E-01 -0.68208921E-03
  0.39750176E-02  0.13734983E-02  0.19557680E-01
  0.80298921E-03  0.11071544E-01 -0.12585138E-02
 -0.30186231E-02  0.22572736E-02  0.16565390E-01
  0.25145052E-02  0.90544817E-03 -0.19559711E-03
 -0.61987158E-02 -0.67853464E-02 -0.37732612E-02
 -0.23312242E-02 -0.13558056E-02  0.16883143E-02
 -0.86049772E-02 -0.12056817E-02 -0.12191216E-01
 -0.37810946E-02 -0.56679666E-02  0.27746799E-02
 -0.84756893E-02 -0.17542684E-01 -0.16272486E-01
 -0.47816629E-03  0.81373364E-02  0.48408460E-02
 -0.10334544E-01 -0.28552288E-02 -0.34521571E-02
  0.22009290E-02  0.30990724E-03  0.70135601E-02
 -0.84560573E-02  0.32567908E-02  0.16900978E-02
 -0.20902554E-01 -0.10319314E-01 -0.63079400E-02
 -0.54435043E-02  0.79566065E-02  0.81364560E-02
  0.90078621E-03 -0.11579770E-01  0.77304487E-02
  0.12211190E-02  0.55353457E-02  0.62699619E-02
 -0.32310013E-02 -0.40029588E-02  0.29293857E-02
 -0.61934102E-02  0.83710312E-02 -0.44027762E-03
  0.55051120E-03  0.26061964E-02  0.42081859E-02
  0.65095576E-02  0.17233207E-02  0.67147877E-02
  0.52733051E-02  0.85129797E-02 -0.35296822E-02
  0.93560961E-02 -0.37941103E-02 -0.25521155E-02
  0.45628463E-02  0.76515532E-02  0.10361513E-01
  0.75870697E-02 -0.52155711E-02 -0.27271116E-02
  0.11380403E-01 -0.31637035E-02 -0.34170549E-02
  0.13912617E-02  0.78077605E-02 -0.76569256E-03
  0.46525972E-02  0.22192521E-01  0.19696296E-02
  0.61437470E-02  0.52076217E-02  0.71110030E-02
  0.36191419E-02  0.86043113E-03 -0.62124340E-02
  0.12351805E-02 -0.79186389E-02  0.38858526E-02
 -0.48903721E-03 -0.72004342E-03  0.90899900E-02
 -0.19148478E-03  0.10405675E-01 -0.13869128E-01
 -0.26349818E-02 -0.87827774E-02 -0.25387365E-02
  0.14914133E-01 -0.50341320E-02 -0.34243521E-02
  0.63313754E-02  0.16668969E-03 -0.17793034E-02
  0.11842077E-01 -0.17173068E-02  0.33826994E-02
  0.33063546E-02  0.10000125E-01  0.44383850E-02
  0.15558471E-01 -0.22433841E-02  0.82437466E-02
 -0.97147200E-02  0.13928361E-02 -0.76851862E-02
  0.63100140E-03  0.58468673E-02 -0.28468150E-02
 -0.63846035E-02  0.47151154E-02  0.71794306E-02
  0.10483263E-01 -0.48774080E-02  0.10148763E-01
 -0.85697418E-02 -0.50881872E-02 -0.79067004E-02
  0.12100154E-01 -0.43039615E-02  0.18206687E-01
 -0.53027574E-02 -0.41882768E-02 -0.32205568E-02
 -0.77269424E-02  0.59367324E-02 -0.20837085E-01
  0.12295831E-01 -0.76886966E-02 -0.12086225E-01
 -0.12325113E-02 -0.28020522E-02  0.44380812E-02
  0.76478687E-03  0.46381931E-02  0.36884309E-02
 -0.35811321E-02  0.57051763E-02 -0.11250560E-01
  0.12932473E-02 -0.10675491E-01  0.79062281E-03
 -0.13213322E-01 -0.52148708E-02  0.46711689E-02
  0.13205982E-02  0.34599982E-02 -0.20652495E-02
 -0.89807029E-02 -0.41559075E-02 -0.49505181E-02
 -0.57373237E-02  0.71198417E-02 -0.14749602E-01
  0.12695566E-01  0.68580218E-03  0.41561263E-02
 
           1
   1.00000000000000     
  0.41032290E+00  0.72102165E-03 -0.15239376E-03  0.00000000E+00
  0.99881297E+00  0.62691783E-02  0.62053263E-02
  0.16522764E+00  0.16006417E+00  0.16992292E+00
  0.49333439E+00  0.16546650E+00  0.16894707E+00
  0.66329968E+00  0.99529672E+00  0.99375068E+00
  0.83456064E+00  0.15703555E+00  0.16994955E+00
  0.99719155E+00  0.33091296E+00  0.99641798E+00
  0.17129521E+00  0.48924636E+00  0.16711088E+00
  0.33257143E+00  0.34246722E+00  0.98193718E+00
  0.49045492E+00  0.49777403E+00  0.16593895E+00
  0.67377089E+00  0.33451951E+00  0.79951223E-02
  0.83007970E+00  0.49726674E+00  0.16775563E+00
  0.99192345E+00  0.65567696E+00  0.17062420E-01
  0.15860342E+00  0.82676795E+00  0.19187797E+00
  0.33596772E+00  0.67378651E+00  0.99255594E+00
  0.50200640E+00  0.83535098E+00  0.16706886E+00
  0.67002087E+00  0.65685414E+00  0.99578074E+00
  0.82849300E+00  0.84628853E+00  0.15176584E+00
  0.53594202E-02  0.48554352E-02  0.33553025E+00
  0.16306313E+00  0.16849884E+00  0.51231356E+00
  0.33348996E+00  0.99811343E+00  0.34134350E+00
  0.51141774E+00  0.16868271E+00  0.50194062E+00
  0.66623072E+00  0.99920534E+00  0.33835415E+00
  0.83879520E+00  0.15903026E+00  0.49607043E+00
  0.12358016E-02  0.32684999E+00  0.32798713E+00
  0.15905561E+00  0.49812642E+00  0.50203360E+00
  0.33504678E+00  0.32648553E+00  0.32749263E+00
  0.49253000E+00  0.49419044E+00  0.50066316E+00
  0.67221838E+00  0.33256293E+00  0.33174170E+00
  0.82274277E+00  0.50587211E+00  0.49733386E+00
  0.98868400E+00  0.67201069E+00  0.34078460E+00
  0.16590390E+00  0.82477100E+00  0.50985660E+00
  0.33542562E+00  0.66263918E+00  0.33602852E+00
  0.50934200E+00  0.83838525E+00  0.49886836E+00
  0.65385733E+00  0.67779932E+00  0.32227025E+00
  0.82152372E+00  0.83927611E+00  0.49671370E+00
  0.69777289E-02  0.17045550E-02  0.67148359E+00
  0.18087693E+00  0.17319748E+00  0.83032761E+00
  0.33592860E+00  0.98532772E+00  0.66082904E+00
  0.50574286E+00  0.16897477E+00  0.84124638E+00
  0.66478291E+00  0.26487422E-02  0.65212994E+00
  0.83157505E+00  0.17125131E+00  0.82648178E+00
  0.99971092E+00  0.34561405E+00  0.67445566E+00
  0.17547239E+00  0.51245124E+00  0.83005591E+00
  0.33651583E+00  0.33662128E+00  0.65131643E+00
  0.50161033E+00  0.50249875E+00  0.82617319E+00
  0.67126229E+00  0.33293815E+00  0.67474642E+00
  0.82002783E+00  0.49188875E+00  0.82812794E+00
  0.98901546E+00  0.67246203E+00  0.68971958E+00
  0.16567447E+00  0.82636684E+00  0.84268066E+00
  0.33082056E+00  0.66208174E+00  0.65614572E+00
  0.50088092E+00  0.83022326E+00  0.82769645E+00
  0.66915972E+00  0.66701527E+00  0.66774809E+00
  0.83221592E+00  0.84011404E+00  0.83383615E+00
  0.33875530E+00  0.99782541E+00  0.99762845E+00
  0.11361487E+00  0.10439102E+00  0.98918377E+00
  0.24315823E+00  0.23165499E+00  0.10523892E-02
  0.82134398E-01  0.27108745E+00  0.15582071E+00
  0.25959169E+00  0.53692306E-01  0.16842242E+00
  0.42451264E+00  0.12382340E+00  0.99528612E+00
  0.57122854E+00  0.22691823E+00  0.26803911E-02
  0.41669749E+00  0.28650315E+00  0.15239298E+00
  0.59581491E+00  0.56498913E-01  0.18104017E+00
  0.76833814E+00  0.10505004E+00  0.98810119E+00
  0.90472879E+00  0.22575127E+00  0.13168853E-01
  0.74027000E+00  0.26537801E+00  0.16965435E+00
  0.94246042E+00  0.66064005E-01  0.17853918E+00
  0.11350699E+00  0.43080465E+00  0.99902620E+00
  0.23949447E+00  0.56172374E+00  0.19680438E-02
  0.66134654E-01  0.60379831E+00  0.15832030E+00
  0.27895353E+00  0.40605597E+00  0.15539782E+00
  0.45076828E+00  0.42884817E+00  0.99149750E+00
  0.56053665E+00  0.56793445E+00  0.99986938E+00
  0.39827237E+00  0.60485866E+00  0.17899333E+00
  0.60802212E+00  0.40962445E+00  0.18120708E+00
  0.76253951E+00  0.44024335E+00  0.65904174E-02
  0.88232117E+00  0.56620221E+00  0.99262961E+00
  0.71877769E+00  0.58970406E+00  0.17694813E+00
  0.93545890E+00  0.38909920E+00  0.15985022E+00
  0.10686597E+00  0.77572214E+00  0.79556503E-02
  0.71395132E-01  0.94085769E+00  0.17155561E+00
  0.27678472E+00  0.74728497E+00  0.14492801E+00
  0.43556066E+00  0.77486209E+00  0.99697104E+00
  0.56723485E+00  0.88758785E+00  0.99220572E+00
  0.38828003E+00  0.91608098E+00  0.17595097E+00
  0.59432791E+00  0.72315365E+00  0.14667417E+00
  0.76435823E+00  0.76952762E+00  0.98978714E+00
  0.89647417E+00  0.90374328E+00  0.99379516E+00
  0.74066005E+00  0.95118406E+00  0.15709425E+00
  0.94495972E+00  0.73430663E+00  0.16096846E+00
  0.95499085E-01  0.10565202E+00  0.33716112E+00
  0.23085537E+00  0.22859908E+00  0.33138633E+00
  0.65938391E-01  0.27427855E+00  0.51227182E+00
  0.26059389E+00  0.63987614E-01  0.50240251E+00
  0.42627157E+00  0.97870979E-01  0.31908251E+00
  0.58009181E+00  0.22412673E+00  0.33800735E+00
  0.40529072E+00  0.26657287E+00  0.48570223E+00
  0.59465298E+00  0.56236365E-01  0.49754729E+00
  0.76993982E+00  0.98996497E-01  0.32462427E+00
  0.89672969E+00  0.22705052E+00  0.32628855E+00
  0.72556794E+00  0.25260956E+00  0.50423240E+00
  0.92900826E+00  0.53203694E-01  0.49600240E+00
  0.10477197E+00  0.43707331E+00  0.33036683E+00
  0.24059011E+00  0.55913304E+00  0.33118102E+00
  0.54230216E-01  0.61509580E+00  0.49915327E+00
  0.26963940E+00  0.39588854E+00  0.49347620E+00
  0.42439041E+00  0.43353128E+00  0.33324002E+00
  0.56071903E+00  0.57044102E+00  0.34302456E+00
  0.41724380E+00  0.61537966E+00  0.50310901E+00
  0.61360490E+00  0.40186050E+00  0.51162692E+00
  0.77682066E+00  0.42947582E+00  0.32723296E+00
  0.88109224E+00  0.57382114E+00  0.32585445E+00
  0.72050694E+00  0.60580930E+00  0.49739600E+00
  0.94723525E+00  0.40777593E+00  0.49449305E+00
  0.84819899E-01  0.77699064E+00  0.33892676E+00
  0.24219292E+00  0.88210770E+00  0.35127740E+00
  0.75919804E-01  0.94401630E+00  0.50797944E+00
  0.25461652E+00  0.71628805E+00  0.49925791E+00
  0.44327468E+00  0.76605637E+00  0.34158725E+00
  0.56889416E+00  0.90394281E+00  0.33803600E+00
  0.40045232E+00  0.92320708E+00  0.49712067E+00
  0.62064766E+00  0.75324720E+00  0.51067065E+00
  0.76085720E+00  0.78088009E+00  0.31289950E+00
  0.90300979E+00  0.90043165E+00  0.32266134E+00
  0.72545475E+00  0.93087275E+00  0.49553762E+00
  0.91207824E+00  0.73261600E+00  0.49858814E+00
  0.11111070E+00  0.10084017E+00  0.67014116E+00
  0.23502933E+00  0.24470581E+00  0.66327994E+00
  0.61425800E-01  0.26680031E+00  0.83106768E+00
  0.25437409E+00  0.41909646E-01  0.83020688E+00
  0.43216320E+00  0.94286746E-01  0.65824903E+00
  0.56993009E+00  0.22829875E+00  0.67581589E+00
  0.39707088E+00  0.27515909E+00  0.82290971E+00
  0.59852773E+00  0.62350402E-01  0.82716203E+00
  0.77358701E+00  0.10006779E+00  0.66707678E+00
  0.89810942E+00  0.23328504E+00  0.66915605E+00
  0.75005523E+00  0.28590071E+00  0.83829472E+00
  0.92903186E+00  0.73520764E-01  0.83410556E+00
  0.94215605E-01  0.45204804E+00  0.66760488E+00
  0.23912724E+00  0.56168749E+00  0.66349933E+00
  0.74697817E-01  0.61826985E+00  0.84426325E+00
  0.27264501E+00  0.40302355E+00  0.81283335E+00
  0.43062220E+00  0.42890573E+00  0.66555240E+00
  0.57389895E+00  0.55841390E+00  0.66722799E+00
  0.39966271E+00  0.60007164E+00  0.83394428E+00
  0.61844896E+00  0.40901446E+00  0.84653611E+00
  0.78315436E+00  0.41656084E+00  0.64598988E+00
  0.88697772E+00  0.56143672E+00  0.68499228E+00
  0.73047240E+00  0.59803395E+00  0.83796524E+00
  0.93483107E+00  0.39863840E+00  0.84252491E+00
  0.10553727E+00  0.76380912E+00  0.67512131E+00
  0.23824755E+00  0.88865752E+00  0.66335291E+00
  0.65545445E-01  0.92818038E+00  0.84751595E+00
  0.27560730E+00  0.73361535E+00  0.82884875E+00
  0.43142286E+00  0.77145502E+00  0.67095143E+00
  0.57598785E+00  0.90288100E+00  0.67300331E+00
  0.39891175E+00  0.93021864E+00  0.82402751E+00
  0.60624885E+00  0.73446333E+00  0.83313704E+00
  0.77281892E+00  0.77535881E+00  0.66418406E+00
  0.90286218E+00  0.89399175E+00  0.66694627E+00
  0.73300481E+00  0.94297536E+00  0.81878711E+00
  0.93288226E+00  0.74594035E+00  0.84140189E+00
 -0.11895237E-03  0.23019523E-03  0.30320214E-04
  0.29031900E-03  0.22079869E-03  0.37637590E-03
  0.30658646E-03 -0.20730441E-03 -0.39869774E-03
 -0.17271299E-03 -0.16256256E-03  0.35945706E-04
  0.41852777E-04  0.22992770E-03 -0.38378947E-03
  0.44017737E-05 -0.18228534E-03 -0.36059403E-03
  0.14483642E-03 -0.22897681E-03 -0.33919224E-03
  0.59742008E-04 -0.12410287E-04 -0.86691034E-04
 -0.16867691E-03 -0.22071178E-03 -0.40361375E-03
  0.12081906E-04  0.12781143E-03  0.14111976E-03
  0.14206839E-03 -0.58846845E-04  0.72881336E-04
 -0.16986787E-03 -0.20758425E-05 -0.92377122E-04
  0.24179036E-03  0.10124929E-03 -0.40401664E-03
  0.18365026E-04 -0.26427270E-03  0.32458475E-03
 -0.99308120E-04  0.16721671E-03 -0.21527848E-03
 -0.18399920E-04 -0.13465252E-04 -0.12558536E-03
 -0.26145169E-03  0.40683867E-03 -0.15015846E-03
 -0.10047914E-03 -0.26385688E-03 -0.35795010E-03
 -0.11494522E-03  0.73868448E-04 -0.28517494E-03
  0.95147766E-04  0.24609833E-03 -0.45659017E-04
 -0.15310387E-03  0.30110850E-04 -0.98251849E-04
  0.21594898E-03 -0.17106979E-04  0.17784274E-04
  0.58762638E-04  0.33101622E-05  0.45527041E-03
 -0.19993160E-04  0.10874620E-04 -0.87410240E-04
 -0.25374601E-03 -0.20073478E-04 -0.10740406E-03
  0.51269179E-04  0.15881447E-03  0.52113348E-03
  0.20894565E-03 -0.29781587E-03  0.28847550E-04
 -0.93082741E-04  0.45712770E-04  0.41995156E-03
  0.11407030E-03  0.50719256E-04  0.38839663E-03
 -0.21514837E-04  0.20763108E-03 -0.37741255E-03
 -0.28741219E-03 -0.20680314E-03  0.37686124E-03
  0.75280678E-04  0.20707465E-03  0.19831783E-03
  0.20142144E-03  0.12540099E-03  0.73752041E-04
  0.85232680E-05 -0.39338970E-04 -0.67140509E-04
  0.74164166E-04 -0.31817811E-03  0.36564626E-04
 -0.19116803E-03  0.20177177E-03 -0.16195092E-04
  0.22610077E-04  0.28364206E-03 -0.59955574E-03
  0.28581337E-03  0.98925939E-04  0.31976376E-03
 -0.16938708E-03 -0.12167399E-03 -0.29823457E-03
  0.21116728E-03 -0.16379989E-03 -0.46508466E-04
 -0.71228486E-04 -0.18391770E-03  0.30660632E-03
 -0.12334671E-03 -0.19150347E-04  0.18602149E-03
 -0.79174997E-04  0.30886706E-03  0.20263124E-04
 -0.11312061E-03 -0.92477177E-04  0.12875916E-03
 -0.12854674E-03  0.94985015E-04  0.34470136E-03
 -0.72919756E-05  0.33486122E-04 -0.26152777E-03
  0.10648646E-03  0.29288781E-04  0.17612693E-03
  0.10595596E-03 -0.21200442E-03  0.49912456E-03
 -0.23389302E-03  0.20965313E-04  0.38835128E-05
 -0.18971068E-03 -0.27858532E-04 -0.13786196E-03
  0.17184138E-03 -0.19735819E-03  0.29059378E-03
 -0.62533864E-05  0.10357222E-03  0.23864280E-03
  0.17070453E-03  0.18221698E-03  0.26304542E-03
 -0.14254317E-03  0.84155281E-04 -0.14411408E-03
  0.24367052E-03  0.27950800E-05 -0.48348184E-04
 -0.81144171E-03  0.14817174E-03 -0.16205737E-03
 -0.49014681E-04  0.34276282E-03 -0.31693971E-03
 -0.57816623E-03  0.23385099E-03  0.48951588E-03
  0.12372950E-02  0.29578346E-03 -0.15072178E-02
  0.46302763E-04  0.32966048E-03 -0.15727709E-02
  0.21163201E-04 -0.11131878E-04  0.94724476E-04
 -0.99384837E-04 -0.54199301E-04 -0.85367769E-03
  0.39066519E-04 -0.83046612E-03 -0.40147701E-03
 -0.51683892E-03 -0.19895361E-03  0.46040404E-03
 -0.31090099E-03 -0.37126088E-03  0.29311289E-03
  0.64021313E-03  0.58471814E-04 -0.26189590E-03
  0.10427483E-02 -0.24362535E-03  0.22850553E-03
 -0.37004177E-03 -0.28801437E-03 -0.84442257E-03
 -0.90200582E-05 -0.76989640E-04  0.10103283E-02
 -0.21062371E-03 -0.77644720E-03 -0.13003852E-02
 -0.88905752E-04 -0.17228344E-03  0.50802927E-03
  0.90720905E-03 -0.77985668E-03  0.51474247E-03
 -0.50364485E-04  0.45112106E-03 -0.39760598E-03
  0.61757821E-03  0.44082993E-05  0.36782892E-03
  0.89940133E-04 -0.88231142E-03 -0.42859798E-03
 -0.53538502E-03 -0.11436915E-03 -0.30084316E-03
 -0.47864129E-05 -0.37762316E-03 -0.33613922E-03
  0.76510562E-03 -0.99927263E-04  0.55065943E-03
 -0.38379613E-03  0.32470700E-03 -0.33178567E-03
 -0.13683584E-04 -0.95666795E-03 -0.33012791E-03
  0.46397376E-03  0.73229407E-04 -0.26725995E-03