CONTCAR-qvdai                           
   1.00000000000000     
    14.4414740842709328   -0.0007474433111926    0.0000000000000000
    -0.0007474431454255   14.4414804789008961    0.0000000000000000
     0.0000000000000000    0.0000000000000000    9.7223100151145676
   Sn   Ti   O 
    53     1   108
Direct
  0.0030907379966155  0.9926130692474013  0.0121564173737481
  0.1777076110986746  0.1644998466313272  0.1681455494466969
  0.4937922357050334  0.1499471134322899  0.1519162009971678
  0.6601157832563940  0.9975299611413742  0.0022712678970930
  0.8374391036675175  0.1677260762032188  0.1546313366530404
  0.0071834315428476  0.3247821168480502  0.0013569199937526
  0.1671889149271989  0.5032426374260116  0.1656986556540992
  0.3473276664115658  0.3376226828449350  0.9987346584111516
  0.5002162435597660  0.5062479963633845  0.1794995437341285
  0.6719313352286679  0.3346565699188919  0.9917542905464652
  0.8369892485709416  0.4948366614338565  0.1588964525223626
  0.9939822376129200  0.6730153073605681  0.0014108966290978
  0.1728770444019765  0.8427741537630417  0.1627504296994427
  0.3299115220970855  0.6670842944043132  0.0135222090381870
  0.4938831678685591  0.8323243281976912  0.1757416341804527
  0.6767427120724463  0.6574318962640852  0.9954216479337165
  0.8314235220365251  0.8353902201608183  0.1722733103082131
  0.9939346237649117  0.0041733034482071  0.3353722214843728
  0.1595992933892807  0.1641613182385371  0.4964362053729149
  0.3219710988690346  0.0089538198691303  0.3449831449963446
  0.4967644727578752  0.1729099031562178  0.4877764779681083
  0.6673868476001761  0.0063081062955228  0.3322973279591506
  0.8364355953431363  0.1652264655327084  0.5013972471340847
  0.0038536850500412  0.3347947558256019  0.3292653647945450
  0.1669526144142189  0.4980853187374059  0.5025083611090102
  0.3334765109106476  0.3305221494020000  0.3340576347022781
  0.4972767804101133  0.4918638782924907  0.5142753389545105
  0.6674697158732834  0.3245298452388385  0.3313489378690598
  0.8300061908647361  0.5003700286905581  0.4948331189369353
  0.0016165049095862  0.6642629928997255  0.3249030855535596
  0.1607251637662569  0.8478819972533886  0.5030397395339493
  0.3321381984398907  0.6628402167351827  0.3440531477852166
  0.4922707000764737  0.8372872227941422  0.5026279623540321
  0.6630629131414646  0.6704748631582601  0.3355645519976053
  0.8411939119196228  0.8270031840057006  0.5040516526200737
  0.9947498463222785  0.9987042831542146  0.6770803097104243
  0.1720141206529380  0.1605762590866277  0.8408400228223483
  0.3301278984594681  0.0006941252998213  0.6661398419086402
  0.5121432471436164  0.1676717161867592  0.8284416181894704
  0.6663000328374902  0.0047343127920564  0.6594151448966156
  0.8269493140472752  0.1587055347183003  0.8265935246836833
  0.9896603031651359  0.3300414571805968  0.6654909225433788
  0.1621182532294138  0.4982843819690045  0.8433335501477240
  0.3248557433549858  0.3303711454941308  0.6594580259803937
  0.5011503934602488  0.5027460318231834  0.8317009341601547
  0.6767615129025226  0.3334474401100173  0.6582556963318018
  0.8304507577992135  0.4974913094295770  0.8320884369076726
  0.9969863234993643  0.6645690725402366  0.6646903413588061
  0.1747824832503388  0.8304610844242929  0.8343138817273762
  0.3424310863423240  0.6699911902307053  0.6611005458607816
  0.4985433863546207  0.8322669677285520  0.8287132633838915
  0.6622778543811374  0.6794157296209714  0.6573165895552423
  0.8323431486531044  0.8413230868189860  0.8361458999303187
  0.3300770352444287  0.9954918049222236  0.9958359933453753
  0.1067651832364953  0.1030570036039611  0.0119318932038209
  0.2392168215444889  0.2347285757125713  0.9888050073604361
  0.0716372246485782  0.2610780081729598  0.1642074162555863
  0.2661971548069474  0.0541826776635322  0.1596203875073825
  0.4339257278360320  0.1025757673046680  0.9903294914826672
  0.5634093723793561  0.2406564610944221  0.0045429093566665
  0.4126220512834263  0.2661078340321502  0.1739846672102075
  0.6057190612701505  0.0688651225631232  0.1659580058916901
  0.7720681549472547  0.1019005723673427  0.0035461751507325
  0.8894015320430609  0.2335529167845030  0.9918659191230308
  0.7334345716754794  0.2756356295497196  0.1514791113378014
  0.9343496084155331  0.0546719914154048  0.1627718921112306
  0.1096211413386883  0.4177539801371785  0.0075984336080928
  0.2211146896314822  0.5604350805596012  0.0109432025002079
  0.0610832281455875  0.6000639393993121  0.1601981039002801
  0.2762277130087092  0.4043232557256149  0.1670802542490997
  0.4412058028892758  0.4466701394040095  0.0082071154078670
  0.5762539703928492  0.5556984741449981  0.0093836158466207
  0.3918283825879495  0.6048336703714133  0.1766071106721731
  0.6069327343714398  0.4046216753932863  0.1708691874332144
  0.7546765608290115  0.4526772523809541  0.9919079744651792
  0.9010282424149400  0.5676065088080152  0.9901101455109729
  0.7475631186218643  0.5992605670933163  0.1719065458571395
  0.9356183928464307  0.3884810576060516  0.1686705531467063
  0.1092938575883641  0.7774164011611889  0.9986337520935865
  0.2476699084691954  0.8990305985957026  0.9920719158448698
  0.0560042540749128  0.9236510012132380  0.1757055315170445
  0.2631036296364883  0.7380975699770349  0.1812096662607444
  0.4239834261692603  0.7742102487853045  0.0062724014201317
  0.5528939486931642  0.9001291613909125  0.0059443507631065
  0.4086517658073138  0.9558815303763258  0.1607595011117079
  0.6034654647630893  0.7264788242130460  0.1602893530957438
  0.7796172218756992  0.7739633628283114  0.9962703999606132
  0.8960860770446976  0.9066277532639545  0.0030385458092161
  0.7225117389788379  0.9298739983048965  0.1604004887392370
  0.9373705199075258  0.7399766363708082  0.1755898819232702
  0.1037733906735788  0.1033178583712695  0.3422815979284730
  0.2426319797142600  0.2226657998001340  0.3458331818875650
  0.0699201820198987  0.2684030682026751  0.4822727951661288
  0.2496923495336161  0.0527032992287806  0.5096843918667444
  0.4244918291987686  0.1000770168557609  0.3269320542248609
  0.5581165225814558  0.2276691430202220  0.3316676825679927
  0.3939018255466344  0.2790033113138423  0.4969317738400835
  0.6060538221520404  0.0720682133016155  0.5027307811121188
  0.7730775434681791  0.1025872681550898  0.3413976183689636
  0.8880437176594871  0.2372470762444321  0.3187199659495276
  0.7180049066828674  0.2554258881708238  0.5076238810870597
  0.9473815167114324  0.0736428697854500  0.5064513346811177
  0.1101806728186176  0.4360913874080337  0.3338698010394829
  0.2283770160778100  0.5743660022181707  0.3384273391603542
  0.0620149178142961  0.5963405213261425  0.4991613644755820
  0.2766802376411264  0.4045314260874399  0.4985347128696255
  0.4506031106325527  0.4169127160315583  0.3428198969237827
  0.5570915564300341  0.5730207267892596  0.3327311594012353
  0.3899336998154078  0.5926538346726939  0.4991595740325018
  0.6073832354264611  0.4104101758829202  0.4955402131286042
  0.7773130423428120  0.4208712008902163  0.3403490197703360
  0.9057001862429358  0.5535456576836532  0.3212845293881125
  0.7207949057033575  0.6024224632651235  0.5000572920890251
  0.9341621822127052  0.3934476676187972  0.4958648034507084
  0.1019544525670449  0.7753759254718509  0.3387068974252513
  0.2380852357658224  0.9024694282365537  0.3386780234085037
  0.0570948336873474  0.9308941460982524  0.5046104539713449
  0.2852608694684614  0.7424516470270934  0.4974147018842188
  0.4455291047434128  0.7626746260989087  0.3378529190874987
  0.5695964386400737  0.8931902030874997  0.3383991599707045
  0.3929570860397683  0.9301602636414039  0.5055157072594029
  0.6148583152544372  0.7505744532175086  0.5061749393132455
  0.7760686777944554  0.7652834658354801  0.3367196360081521
  0.9015526936403515  0.8966234304282458  0.3362836413747616
  0.7213613499399159  0.9280868621370478  0.4824806386406603
  0.9413835555424200  0.7265383604347808  0.4968832449389026
  0.1064423174163839  0.0983363574794023  0.6694922668412319
  0.2284193014640026  0.2250487767075640  0.6686421113369719
  0.0702371095240641  0.2718794592573147  0.8208022136956961
  0.2656002077662044  0.0603576733954804  0.8441483673652722
  0.4254714041933861  0.1091313469324326  0.6635577310302613
  0.5795511063571660  0.2226424184436555  0.6598427860651735
  0.3928303187717465  0.2580448919823744  0.8313464713149108
  0.6017767241065795  0.0646279434802351  0.8327804471567871
  0.7689085961346266  0.1056034393244175  0.6605306372811008
  0.9013701006648541  0.2207940825387769  0.6704269512593929
  0.7310789299694973  0.2705208557300426  0.8310393151538703
  0.9443735707063143  0.0698791688235864  0.8380248536506816
  0.1028992366248898  0.4360237468565812  0.6579142519609691
  0.2264810676530745  0.5862231545098774  0.6626149630984093
  0.0465086860720298  0.5892805128159334  0.8371500412040733
  0.2580023733200871  0.3929494208721156  0.8245265803105467
  0.4210895236847215  0.4464479815909695  0.6736903778650039
  0.5640023301702008  0.5704512832014128  0.6609884260854093
  0.3947384359185740  0.5983271101666592  0.8407392748546187
  0.6005500614065826  0.4068452032150390  0.8287858442718711
  0.7762908699138423  0.4283288026529271  0.6678975175811960
  0.8915901026941121  0.5599998406135627  0.6614575810369612
  0.7445057687152539  0.6144627201796318  0.8206478653345932
  0.9403437563001458  0.4002339174582769  0.8469097637475742
  0.0939705619997623  0.7756087320024011  0.6803593250615786
  0.2267410807246692  0.9008140732654649  0.6648349327615070
  0.0589031498016044  0.9367075807877691  0.8483708383784163
  0.2838237697452051  0.7374090135998690  0.8255212754994554
  0.4385905357004125  0.7642516776814540  0.6637651252814014
  0.5500097225852565  0.9128856458632927  0.6662711141698852
  0.3969237119322477  0.9284454265036212  0.8217888679088272
  0.5913463350706837  0.7299464893049115  0.8462101135323484
  0.7754010703749290  0.7632013422364216  0.6766719770863650
  0.8898147011246625  0.9132793984027142  0.6657557618533150
  0.7310550972753636  0.9355730504133745  0.8336873800346299
  0.9269525036637377  0.7285951051929462  0.8255084887604923
 
  0.19641378E-02 -0.24512780E-02  0.85027233E-03
 -0.21698849E-02 -0.51827449E-03  0.40254603E-03
  0.30017951E-02 -0.32367200E-02 -0.12569060E-02
  0.10322852E-02 -0.23890493E-02  0.22662364E-02
  0.14792828E-03  0.14040794E-02  0.20738310E-03
 -0.18995357E-02  0.26773302E-02 -0.79716224E-03
 -0.18425131E-02  0.81261225E-03 -0.37884730E-04
 -0.19748894E-02  0.28731621E-02  0.21632208E-02
 -0.10096002E-02  0.13824798E-02 -0.12973844E-02
  0.29224286E-02  0.18775028E-02 -0.17628070E-02
 -0.29087124E-03  0.47726726E-03 -0.10652433E-02
  0.84045739E-03  0.33945496E-02 -0.28282217E-02
  0.36818344E-02 -0.15161418E-02 -0.35018244E-04
  0.27862890E-02  0.24089047E-02  0.23676751E-02
 -0.13391174E-02 -0.24108547E-02  0.42296858E-04
  0.26572159E-03 -0.11884583E-02  0.70250101E-03
  0.65563941E-03 -0.19518877E-03 -0.31207696E-02
 -0.13648322E-02  0.90389889E-03  0.13710780E-02
 -0.10351207E-02 -0.15633094E-02 -0.40944366E-02
  0.42608316E-02  0.62141767E-03 -0.10664966E-02
  0.34939496E-02  0.28513130E-02  0.56696644E-02
  0.25373511E-02 -0.16784051E-02 -0.10227608E-02
  0.76389531E-03  0.35810308E-03  0.36264939E-02
  0.89396468E-03 -0.17759548E-02  0.11651683E-02
 -0.12377721E-02  0.76892796E-03 -0.76729529E-03
 -0.21224230E-02 -0.14295558E-02 -0.27319001E-02
  0.26965625E-02 -0.68170821E-03  0.10491172E-02
 -0.29113929E-02  0.25373653E-02  0.18022881E-02
 -0.22418802E-02 -0.11074525E-02  0.23723721E-02
 -0.29173956E-02 -0.39563691E-02 -0.32353715E-02
 -0.21062653E-02 -0.25647315E-02 -0.28646428E-03
 -0.16679690E-02 -0.14984179E-02  0.41367640E-02
 -0.14741289E-02 -0.55240387E-02  0.19862285E-02
  0.32437477E-02 -0.23742339E-02  0.27836781E-02
  0.86663648E-03 -0.26940281E-03  0.30669165E-03
 -0.55984163E-03  0.38556356E-02  0.33559085E-02
 -0.14431093E-02 -0.35583544E-03 -0.74567627E-03
 -0.91768528E-03 -0.62536647E-03 -0.20775009E-02
 -0.32245235E-02  0.18752043E-02 -0.54982852E-03
  0.12366443E-02 -0.21060215E-04 -0.37370760E-02
 -0.22179292E-02 -0.19366461E-02 -0.33576897E-02
  0.85013227E-03  0.15213781E-02  0.67793229E-03
  0.12163077E-02 -0.14873775E-02  0.91772089E-03
  0.41666454E-02 -0.10758013E-02 -0.48480582E-03
  0.10869578E-02  0.34760902E-02 -0.44186986E-02
 -0.58014606E-04  0.16357778E-02 -0.11596414E-02
 -0.15794105E-02 -0.77018035E-03 -0.60123314E-02
 -0.16322399E-02 -0.20155112E-03  0.23235347E-02
  0.23379466E-02 -0.22032672E-02  0.12493082E-02
  0.36037959E-02  0.19744332E-02  0.34055287E-02
  0.89121122E-03  0.43164195E-02 -0.36598062E-04
 -0.37689217E-02  0.10573516E-02  0.74492449E-03
  0.34981242E-02  0.24439131E-02  0.28191264E-02
 -0.60730696E-02 -0.53349139E-02  0.41119036E-02
 -0.35326939E-02  0.40265991E-02  0.45837527E-02
  0.38686526E-02 -0.48093824E-02  0.15494090E-02
  0.15628976E-02 -0.27327911E-02  0.45973408E-02
  0.33408003E-02  0.69831540E-02  0.14878823E-02
 -0.38145527E-02  0.39387666E-02 -0.47090297E-02
 -0.30247407E-03 -0.12373493E-04  0.13660258E-01
 -0.53049679E-02  0.56586566E-02 -0.49016358E-02
  0.57710589E-02 -0.37393308E-02 -0.55522713E-02
  0.20265289E-02  0.11619470E-01 -0.17884241E-02
 -0.77873056E-02  0.41804220E-02 -0.13267707E-02
  0.37680467E-02 -0.41833447E-02  0.19508577E-02
  0.50119853E-02  0.10829286E-01  0.48076855E-02
  0.82816831E-02  0.13525556E-02 -0.42886893E-02
 -0.45454172E-02  0.40581024E-02  0.32438100E-03
 -0.85760533E-03  0.12821439E-02  0.80956260E-02
 -0.69151040E-02 -0.10078955E-01  0.20657165E-02
 -0.15370198E-02  0.67534491E-03  0.92075456E-02
  0.48902951E-02 -0.24400352E-02 -0.85315242E-02
  0.44619841E-02  0.10765159E-02  0.30340877E-02
  0.30921497E-02 -0.18494110E-02 -0.72410343E-02
  0.10928079E-01 -0.22306307E-02  0.58755678E-02
 -0.30356228E-02 -0.12782198E-01  0.42577333E-02
 -0.40627851E-02  0.17506185E-02 -0.24869474E-02
 -0.23041214E-03 -0.30510566E-02 -0.48331045E-02
  0.21777074E-03  0.22864068E-02 -0.18540412E-02
  0.16493871E-02 -0.18354952E-02 -0.27289035E-02
  0.69075791E-02 -0.50094597E-02 -0.10152667E-02
  0.84483349E-03  0.42723012E-02 -0.48486978E-03
 -0.84971729E-02 -0.32953423E-02  0.38892871E-03
 -0.17525988E-02  0.72760995E-02 -0.65049530E-02
  0.98257260E-02 -0.13016618E-02  0.76229299E-03
  0.48147189E-03  0.66574859E-02  0.34820351E-02
  0.92399146E-03  0.22302498E-02 -0.44739906E-02
  0.19959197E-02 -0.10401977E-01 -0.26183370E-02
  0.45225827E-03  0.10774214E-01  0.32283408E-02
  0.96736003E-02  0.43348607E-02  0.33893462E-02
 -0.70003906E-02 -0.24093612E-03  0.56429580E-02
  0.37110601E-03  0.17905966E-02  0.58190308E-02
  0.71774554E-03 -0.15908921E-01 -0.53123236E-02
  0.89657265E-02 -0.12735744E-01 -0.14652592E-01
  0.38884245E-02 -0.44122756E-02 -0.31936987E-02
 -0.12618753E-01  0.91070111E-02  0.50835700E-03
  0.41724149E-02  0.30402241E-02  0.55319357E-04
 -0.66551708E-02  0.19735384E-02 -0.52243118E-03
 -0.80703026E-02  0.24018615E-02  0.38572300E-03
  0.69189275E-02  0.10409140E-01 -0.19918899E-02
 -0.51303778E-02 -0.79542827E-02  0.12432082E-01
  0.21421976E-02 -0.23856635E-03 -0.14388446E-01
  0.30454210E-02 -0.40372899E-02  0.61707112E-02
  0.92225173E-02  0.98109151E-02  0.16765737E-02
  0.50699663E-02  0.68152868E-02  0.77314109E-02
 -0.28035365E-02  0.42252507E-02 -0.78934243E-02
 -0.10686793E-02 -0.18355975E-02 -0.16104766E-02
 -0.52017502E-02  0.11794919E-02 -0.13944577E-01
  0.79964103E-02 -0.28860472E-02  0.41017586E-02
 -0.26793227E-02 -0.87504444E-02  0.21154367E-02
  0.54991371E-03  0.34234201E-02  0.16346046E-02
 -0.87904346E-02 -0.22748093E-02 -0.52660933E-02
  0.14341683E-02  0.38315849E-02 -0.46597102E-02
 -0.19103056E-02 -0.11402597E-03 -0.42317930E-02
  0.36350600E-02 -0.10616045E-02  0.82679454E-03
 -0.57921493E-02 -0.11063660E-02 -0.92678349E-03
  0.14428196E-02  0.12761475E-01  0.36904327E-02
 -0.78100598E-03 -0.43562147E-02 -0.61452211E-02
 -0.23127903E-02 -0.28278977E-02 -0.10350687E-01
 -0.39728662E-02  0.52824050E-02  0.22751133E-02
 -0.35586463E-02  0.74107952E-02 -0.71833156E-02
  0.18883483E-03 -0.11074027E-01  0.30719904E-03
 -0.98869076E-02 -0.56210150E-03 -0.80947178E-02
 -0.66678826E-03 -0.38279535E-02 -0.10747117E-01
 -0.38109484E-04 -0.26949054E-02  0.21609617E-02
 -0.73282924E-02  0.51744512E-03 -0.24783448E-02
 -0.11930853E-02  0.10133313E-01  0.96160194E-02
  0.70249651E-02  0.37927717E-02  0.11303037E-01
 -0.18460285E-02 -0.75313009E-02  0.56372619E-02
 -0.12608665E-01 -0.37359922E-02 -0.27807954E-02
 -0.72702595E-02 -0.27920242E-02 -0.29629759E-02
  0.35878889E-02  0.52772452E-02 -0.25636834E-02
  0.19517541E-02 -0.11749063E-01 -0.62143233E-02
  0.16774571E-02  0.22737706E-02  0.67741831E-02
 -0.22424351E-02 -0.43925765E-02  0.51701048E-04
 -0.52891564E-02  0.56328474E-02 -0.12249887E-01
  0.76503355E-02 -0.37784186E-02  0.11610226E-02
 -0.18503314E-02 -0.27452155E-02  0.13000253E-01
  0.16322187E-02  0.20575563E-02  0.10554966E-01
  0.75099992E-03  0.84322343E-03 -0.15336051E-02
 -0.64903811E-02  0.35954678E-02  0.53241638E-02
 -0.89258719E-02 -0.13293106E-02  0.58475193E-02
  0.11087624E-02  0.29506779E-02  0.46318340E-02
  0.27997159E-02  0.14483729E-01 -0.39131215E-03
  0.23468371E-02  0.57013358E-02  0.84253178E-02
 -0.31789562E-02 -0.58593187E-03  0.30460800E-02
  0.84215425E-03  0.48309398E-02 -0.57295568E-03
 -0.56830211E-02 -0.76093703E-02  0.16330087E-02
 -0.10654369E-01 -0.26506347E-02  0.18722768E-02
 -0.59618079E-02 -0.10375352E-01 -0.43206338E-02
  0.36257760E-02  0.53915592E-02  0.35230903E-02
 -0.83448133E-02  0.13765442E-02 -0.46558941E-02
  0.11623032E-01 -0.44545048E-03 -0.35138468E-02
 -0.12953139E-01  0.32118970E-02  0.17976905E-02
 -0.73094446E-02 -0.75581616E-02 -0.31464130E-02
  0.84997491E-02 -0.41597976E-02 -0.78825684E-02
 -0.63067957E-02 -0.15138840E-02 -0.78376039E-03
  0.16022391E-02 -0.44776355E-02  0.78794491E-02
 -0.32202142E-02  0.70892152E-02 -0.19588603E-01
  0.36057780E-03 -0.42337004E-02 -0.37164278E-02
 -0.56266513E-02 -0.10233796E-02 -0.25072964E-02
  0.30300181E-02 -0.42788646E-02 -0.97215336E-03
 
           1
   1.00000000000000     
  0.53513457E+00  0.38487178E-03 -0.13479036E-03  0.00000000E+00
  0.32267360E-02  0.99244334E+00  0.12243873E-01
  0.17755736E+00  0.16446395E+00  0.16818695E+00
  0.49400008E+00  0.14972300E+00  0.15178692E+00
  0.66018726E+00  0.99736454E+00  0.25043644E-02
  0.83744935E+00  0.16782330E+00  0.15465267E+00
  0.70519078E-02  0.32496750E+00  0.12749269E-02
  0.16706133E+00  0.50329890E+00  0.16569476E+00
  0.34719093E+00  0.33782163E+00  0.99895716E+00
  0.50014634E+00  0.50634372E+00  0.17936610E+00
  0.67213371E+00  0.33478659E+00  0.99157297E+00
  0.83696911E+00  0.49486971E+00  0.15878689E+00
  0.99404045E+00  0.67325037E+00  0.11199964E-02
  0.17313199E+00  0.84266918E+00  0.16274683E+00
  0.33010447E+00  0.66725111E+00  0.13765739E-01
  0.49379043E+00  0.83215738E+00  0.17574598E+00
  0.67676111E+00  0.65734960E+00  0.99549390E+00
  0.83146892E+00  0.83537671E+00  0.17195232E+00
  0.99384012E+00  0.42358890E-02  0.33551325E+00
  0.15952761E+00  0.16405306E+00  0.49601507E+00
  0.32226614E+00  0.89968652E-02  0.34487345E+00
  0.49700642E+00  0.17310735E+00  0.48835964E+00
  0.66756254E+00  0.61918943E-02  0.33219213E+00
  0.83648849E+00  0.16525127E+00  0.50177025E+00
  0.39155813E-02  0.33467178E+00  0.32938521E+00
  0.16686691E+00  0.49813856E+00  0.50242944E+00
  0.33332954E+00  0.33042315E+00  0.33377664E+00
  0.49746350E+00  0.49181668E+00  0.51438325E+00
  0.66726813E+00  0.32470553E+00  0.33153431E+00
  0.82985095E+00  0.50029334E+00  0.49507713E+00
  0.14144756E-02  0.66398902E+00  0.32457031E+00
  0.16057931E+00  0.84770439E+00  0.50301027E+00
  0.33202269E+00  0.66273645E+00  0.34447864E+00
  0.49216860E+00  0.83690471E+00  0.50283226E+00
  0.66328752E+00  0.67031047E+00  0.33585087E+00
  0.84125392E+00  0.82698453E+00  0.50408320E+00
  0.99471109E+00  0.99897126E+00  0.67742549E+00
  0.17191419E+00  0.16055161E+00  0.84076333E+00
  0.33006435E+00  0.65081852E-03  0.66592616E+00
  0.51191997E+00  0.16780155E+00  0.82838506E+00
  0.66638566E+00  0.47328589E-02  0.65903076E+00
  0.82679573E+00  0.15857142E+00  0.82624817E+00
  0.98971918E+00  0.33014681E+00  0.66556065E+00
  0.16220247E+00  0.49818139E+00  0.84342794E+00
  0.32514426E+00  0.33029667E+00  0.65940816E+00
  0.50122567E+00  0.50298674E+00  0.83124644E+00
  0.67675750E+00  0.33356071E+00  0.65813642E+00
  0.83034139E+00  0.49743797E+00  0.83147003E+00
  0.99687330E+00  0.66455511E+00  0.66492933E+00
  0.17494437E+00  0.83030853E+00  0.83444238E+00
  0.34268064E+00  0.67012792E+00  0.66145083E+00
  0.49860511E+00  0.83256586E+00  0.82870950E+00
  0.66201688E+00  0.67948893E+00  0.65739321E+00
  0.83258539E+00  0.84149233E+00  0.83643586E+00
  0.32965649E+00  0.99512237E+00  0.99625893E+00
  0.10652058E+00  0.10333581E+00  0.12403361E-01
  0.23948469E+00  0.23439556E+00  0.98896437E+00
  0.71745438E-01  0.26088878E+00  0.16468028E+00
  0.26642851E+00  0.54666238E-01  0.15977343E+00
  0.43366160E+00  0.10284849E+00  0.98984514E+00
  0.56338843E+00  0.24065560E+00  0.59479518E-02
  0.41225473E+00  0.26649965E+00  0.17348050E+00
  0.60611866E+00  0.68606213E-01  0.16538692E+00
  0.77220852E+00  0.10270517E+00  0.33622246E-02
  0.88886231E+00  0.23384236E+00  0.99172945E+00
  0.73369548E+00  0.27534597E+00  0.15167977E+00
  0.93469670E+00  0.55421883E-01  0.16326639E+00
  0.11019461E+00  0.41784767E+00  0.71573153E-02
  0.22079996E+00  0.56071607E+00  0.10976567E-01
  0.61023848E-01  0.60015272E+00  0.16103079E+00
  0.27574884E+00  0.40362531E+00  0.16729273E+00
  0.44109937E+00  0.44671690E+00  0.91541687E-02
  0.57659259E+00  0.55552953E+00  0.85060956E-02
  0.39213736E+00  0.60490823E+00  0.17691919E+00
  0.60714684E+00  0.40449362E+00  0.17012440E+00
  0.75543327E+00  0.45252283E+00  0.99251231E+00
  0.90081799E+00  0.56672139E+00  0.99054808E+00
  0.74728180E+00  0.59938177E+00  0.17165075E+00
  0.93560243E+00  0.38826979E+00  0.16817344E+00
  0.10930895E+00  0.77757472E+00  0.99844305E+00
  0.24778411E+00  0.89890351E+00  0.99179123E+00
  0.56482552E-01  0.92330415E+00  0.17560111E+00
  0.26316215E+00  0.73839341E+00  0.18115979E+00
  0.42339503E+00  0.77398203E+00  0.63124052E-02
  0.55277262E+00  0.90063299E+00  0.52752759E-02
  0.40933214E+00  0.95579143E+00  0.16083791E+00
  0.60349883E+00  0.72693982E+00  0.16064750E+00
  0.77968121E+00  0.77411780E+00  0.99581022E+00
  0.89622425E+00  0.90590748E+00  0.27692336E-02
  0.72254309E+00  0.93062006E+00  0.16073254E+00
  0.93804038E+00  0.74027684E+00  0.17593850E+00
  0.10328865E+00  0.10330115E+00  0.34286201E+00
  0.24265768E+00  0.22278979E+00  0.34643171E+00
  0.69969825E-01  0.26730146E+00  0.48172639E+00
  0.25031314E+00  0.51821445E-01  0.50817728E+00
  0.42476107E+00  0.99771503E-01  0.32660356E+00
  0.55724277E+00  0.22829971E+00  0.33171997E+00
  0.39419076E+00  0.27921385E+00  0.49693746E+00
  0.60559299E+00  0.72204847E-01  0.50267705E+00
  0.77251872E+00  0.10275356E+00  0.34143729E+00
  0.88852286E+00  0.23796788E+00  0.31851509E+00
  0.71764963E+00  0.25487508E+00  0.50890260E+00
  0.94752985E+00  0.73626358E-01  0.50497139E+00
  0.11039154E+00  0.43581184E+00  0.33450450E+00
  0.22901566E+00  0.57504539E+00  0.33859979E+00
  0.62366012E-01  0.59681246E+00  0.49995659E+00
  0.27648612E+00  0.40482399E+00  0.49772283E+00
  0.45052910E+00  0.41678561E+00  0.34265425E+00
  0.55673137E+00  0.57310238E+00  0.33129687E+00
  0.39048740E+00  0.59245402E+00  0.49958147E+00
  0.60719767E+00  0.40980424E+00  0.49575780E+00
  0.77735113E+00  0.42110826E+00  0.34051715E+00
  0.90509148E+00  0.55338811E+00  0.32074288E+00
  0.72089423E+00  0.60268779E+00  0.49957801E+00
  0.93402990E+00  0.39343977E+00  0.49542954E+00
  0.10220616E+00  0.77530243E+00  0.33879194E+00
  0.23768415E+00  0.90239280E+00  0.33858270E+00
  0.57194787E-01  0.93177782E+00  0.50499004E+00
  0.28520677E+00  0.74215000E+00  0.49678263E+00
  0.44536895E+00  0.76247880E+00  0.33678829E+00
  0.56932136E+00  0.89355597E+00  0.33863317E+00
  0.39271069E+00  0.93067341E+00  0.50477686E+00
  0.61487135E+00  0.74980763E+00  0.50620654E+00
  0.77538406E+00  0.76524451E+00  0.33588704E+00
  0.90150651E+00  0.89635836E+00  0.33517823E+00
  0.72135870E+00  0.92790025E+00  0.48270291E+00
  0.94087611E+00  0.72657416E+00  0.49662833E+00
  0.10635974E+00  0.99038034E-01  0.67048133E+00
  0.22890576E+00  0.22531143E+00  0.66980470E+00
  0.70109254E-01  0.27135795E+00  0.82138204E+00
  0.26472711E+00  0.60098930E-01  0.84386235E+00
  0.42496797E+00  0.10893799E+00  0.66325297E+00
  0.57979957E+00  0.22300785E+00  0.65957910E+00
  0.39296543E+00  0.25723134E+00  0.83070729E+00
  0.60189289E+00  0.64785397E-01  0.83347721E+00
  0.76875330E+00  0.10529927E+00  0.66053596E+00
  0.90100387E+00  0.22118411E+00  0.66916697E+00
  0.73160866E+00  0.27025925E+00  0.83115873E+00
  0.94424543E+00  0.69689070E-01  0.83936201E+00
  0.10301227E+00  0.43616623E+00  0.65899990E+00
  0.22653307E+00  0.58628155E+00  0.66245722E+00
  0.46059272E-01  0.58952946E+00  0.83769766E+00
  0.25738430E+00  0.39285734E+00  0.82512803E+00
  0.42116631E+00  0.44665231E+00  0.67416679E+00
  0.56419625E+00  0.57145422E+00  0.66094818E+00
  0.39490096E+00  0.59872191E+00  0.84160587E+00
  0.60032993E+00  0.40680462E+00  0.82909915E+00
  0.77634920E+00  0.42866332E+00  0.66783859E+00
  0.89119655E+00  0.55947291E+00  0.66162555E+00
  0.74376800E+00  0.61427914E+00  0.82084044E+00
  0.93993089E+00  0.39951546E+00  0.84646536E+00
  0.94221648E-01  0.77598208E+00  0.68072170E+00
  0.22616325E+00  0.90090936E+00  0.66435605E+00
  0.59707985E-01  0.93667678E+00  0.84800942E+00
  0.28292684E+00  0.73763137E+00  0.82570618E+00
  0.43808437E+00  0.76372829E+00  0.66344150E+00
  0.55059827E+00  0.91259763E+00  0.66546034E+00
  0.39648699E+00  0.92834058E+00  0.82170825E+00
  0.59145727E+00  0.72963644E+00  0.84702056E+00
  0.77517811E+00  0.76369222E+00  0.67465717E+00
  0.88983965E+00  0.91298624E+00  0.66537350E+00
  0.73066548E+00  0.93550217E+00  0.83342949E+00
  0.92716230E+00  0.72829883E+00  0.82540850E+00
  0.13391320E-03 -0.17423201E-03  0.94336842E-04
 -0.14998318E-03 -0.38103822E-04  0.43450611E-04
  0.20718352E-03 -0.23162211E-03 -0.13759211E-03
  0.69667523E-04 -0.16346633E-03  0.23695966E-03
  0.11483951E-04  0.96831025E-04  0.13523135E-04
 -0.12923791E-03  0.18678980E-03 -0.77699231E-04
 -0.12493579E-03  0.61824065E-04 -0.16454191E-04
 -0.13428989E-03  0.20149482E-03  0.22232695E-03
 -0.72158350E-04  0.10074001E-03 -0.13008403E-03
  0.20911365E-03  0.12579590E-03 -0.18639524E-03
 -0.20986120E-04  0.34234749E-04 -0.11129712E-03
  0.56779746E-04  0.23387301E-03 -0.28660240E-03
  0.25674545E-03 -0.10389318E-03 -0.10423134E-04
  0.19311519E-03  0.16483188E-03  0.25128374E-03
 -0.95050731E-04 -0.16935914E-03  0.10510367E-04
  0.19494817E-04 -0.84660687E-04  0.68622073E-04
  0.45398875E-04 -0.14923090E-04 -0.31831588E-03
 -0.98272732E-04  0.64663647E-04  0.13763933E-03
 -0.74362035E-04 -0.11038834E-03 -0.43610430E-03
  0.29061944E-03  0.45587746E-04 -0.10376096E-03
  0.24384369E-03  0.20130546E-03  0.57295314E-03
  0.17670438E-03 -0.11291898E-03 -0.10613245E-03
  0.51991500E-04  0.22156610E-04  0.38127911E-03
  0.62501363E-04 -0.12157948E-03  0.11983624E-03
 -0.88322530E-04  0.48327423E-04 -0.80461235E-04
 -0.14783317E-03 -0.10283669E-03 -0.27196931E-03
  0.18781979E-03 -0.50254564E-04  0.11816154E-03
 -0.19927534E-03  0.17156254E-03  0.19026824E-03
 -0.15586132E-03 -0.77544133E-04  0.24581769E-03
 -0.20461795E-03 -0.27476220E-03 -0.34025501E-03
 -0.14944128E-03 -0.16758161E-03 -0.26668756E-04
 -0.11559905E-03 -0.10976532E-03  0.42845779E-03
 -0.10842944E-03 -0.38259831E-03  0.20678526E-03
  0.22328018E-03 -0.16447836E-03  0.29187687E-03
  0.64253658E-04 -0.21536482E-04  0.33610524E-04
 -0.46939689E-04  0.26313909E-03  0.34599889E-03
 -0.95560856E-04 -0.28837606E-04 -0.71188678E-04
 -0.66130306E-04 -0.43846958E-04 -0.21907354E-03
 -0.21645133E-03  0.12626723E-03 -0.56904063E-04
  0.86488898E-04  0.39350735E-05 -0.38525267E-03
 -0.15834868E-03 -0.13575713E-03 -0.35543390E-03
  0.52658305E-04  0.10254126E-03  0.67970790E-04
  0.86041202E-04 -0.10216054E-03  0.10606330E-03
  0.28870554E-03 -0.74380490E-04 -0.60944232E-04
  0.75033200E-04  0.23732931E-03 -0.45915679E-03
  0.45297455E-05  0.11053811E-03 -0.12507388E-03
 -0.11398626E-03 -0.57203862E-04 -0.61767487E-03
 -0.11560129E-03 -0.11788889E-04  0.23593735E-03
  0.16346431E-03 -0.15371016E-03  0.13268424E-03
  0.25569604E-03  0.14214594E-03  0.34589792E-03
  0.62770817E-04  0.29699641E-03 -0.11030274E-04
 -0.26246141E-03  0.78594046E-04  0.62662001E-04
  0.23887382E-03  0.17199402E-03  0.29116134E-03
 -0.43260489E-03 -0.37730310E-03  0.42074406E-03
 -0.22776737E-03  0.28790140E-03  0.48339469E-03
  0.27191604E-03 -0.33061304E-03  0.95311788E-04
  0.11891846E-03 -0.19818097E-03  0.44698304E-03
  0.23366429E-03  0.48550850E-03  0.16078529E-03
 -0.25833503E-03  0.28715271E-03 -0.43538120E-03
 -0.10937704E-04  0.26820922E-04  0.14348776E-02
 -0.32845191E-03  0.37331295E-03 -0.47587145E-03
  0.39744342E-03 -0.26238492E-03 -0.57233350E-03
  0.17396493E-03  0.83252612E-03 -0.15385054E-03
 -0.56680195E-03  0.27614155E-03 -0.12022702E-03
  0.24619826E-03 -0.26295104E-03  0.15591373E-03
  0.36892653E-03  0.71175308E-03  0.46611807E-03
  0.56255654E-03  0.56597471E-04 -0.44379493E-03
 -0.36074310E-03  0.23291973E-03  0.10565932E-03
 -0.60200661E-04  0.79948353E-04  0.83849113E-03
 -0.48743437E-03 -0.68098140E-03  0.20752129E-03
 -0.85356240E-04  0.68091079E-04  0.96572971E-03
  0.34836979E-03 -0.18585674E-03 -0.85106426E-03
  0.29532253E-03  0.91256557E-04  0.32751701E-03
  0.20650284E-03 -0.11294334E-03 -0.74505152E-03
  0.74490064E-03 -0.13425353E-03  0.58956827E-03
 -0.18832088E-03 -0.86175647E-03  0.40103003E-03
 -0.24480730E-03  0.85321331E-04 -0.26054657E-03
 -0.17999410E-04 -0.22080974E-03 -0.45324249E-03