CONTCAR-qvdai                           
   1.00000000000000     
    14.4743895367443027    0.0112378294299857    0.0000000000000000
     0.0112378316792506   14.4743840573675850    0.0000000000000000
     0.0000000000000000    0.0000000000000000    9.7934198193542592
   Sn   Pb   O 
    53     1   107
Direct
  0.0036432047990284  0.9970937373937652  0.0019033126508207
  0.1580472389605494  0.1712325339176664  0.1519034188714245
  0.5073463101902318  0.1801560768552662  0.1707499296696120
  0.6675080690841736  0.0092838138052197  0.0048509202249507
  0.8352360648408109  0.1655511677659373  0.1585625075562557
  0.9931084590819975  0.3465311687447041  0.0024030220982567
  0.1758773665762624  0.5115202637864723  0.1743845225293430
  0.3320088490534001  0.3361498686323297  0.0043421714847107
  0.4929658079681524  0.4935089079711413  0.1587778298744132
  0.6756944780421106  0.3328763083785687  0.9998450192154266
  0.8355604238362697  0.5099413948233954  0.1632600800653678
  0.9937729335408494  0.6737438474581585  0.9998596768344256
  0.1779649211898066  0.8304444211245477  0.1738824960228636
  0.3329670890549186  0.6696821221823887  0.0001501049588671
  0.5072545711281178  0.8429526650088898  0.1813155318650555
  0.6517362980939215  0.6626174518990550  0.9998207789442867
  0.8281092611525840  0.8339790660482613  0.1554967665489205
  0.0155728128937465  0.0003551555274330  0.3268771925086191
  0.1696709898445761  0.1705123809435601  0.5039315566967258
  0.3329079599514406  0.0065007902035973  0.3470251553438515
  0.5004477046235873  0.1610585715991048  0.4939704388256322
  0.6827867343713656  0.0058761815066016  0.3402294185052196
  0.8438527796063179  0.1625435662618931  0.4964208355928965
  0.9923539081272558  0.3303351596326040  0.3303188044524068
  0.1693933260131873  0.4921399023150372  0.4956385267932280
  0.3284450982813037  0.3240589384511864  0.3374486843204559
  0.4913003786264502  0.4916341366869054  0.4883114071937446
  0.6675930079926530  0.3374546531704433  0.3291564246562171
  0.8296974276343283  0.5022400547577208  0.5001464986444732
  0.9955846534507452  0.6568450736813811  0.3322429093939996
  0.1714160885680991  0.8394311773219871  0.4939810975660878
  0.3432687326116306  0.6686359914290575  0.3335676185066181
  0.4982368297209713  0.8198119264742318  0.5060428132170011
  0.6571101834283463  0.6669262371870228  0.3386947654311936
  0.8469286146770248  0.8314793831339159  0.4957003661809159
  0.0142273198209172  0.0030702348283850  0.6641503056434717
  0.1597543767324963  0.1760371046854714  0.8309743206941785
  0.3411240888543881  0.0072077060532238  0.6782308704220321
  0.4993674742388761  0.1704189695579745  0.8288916297507811
  0.6711899376799056  0.9918238388048632  0.6625844035713803
  0.8357658502710740  0.1665385117175445  0.8227516220882579
  0.0080573878122368  0.3169594655691398  0.6649096503639615
  0.1657712275601853  0.4968198078316824  0.8412210478537743
  0.3343131851552278  0.3421057835249652  0.6728342715514369
  0.4928063088359463  0.4914194970331240  0.8228271492439925
  0.6647652913694752  0.3309053000699291  0.6680575154893740
  0.8244614830256813  0.4877019437703626  0.8275677435989912
  0.9989753309104373  0.6556134921315132  0.6655513907931963
  0.1645401828054099  0.8241351538422894  0.8203897602847335
  0.3269818296563793  0.6649868054125104  0.6618358132520524
  0.4947168038956068  0.8256228911905794  0.8509050620241856
  0.6500741928029030  0.6620753574939638  0.6612471062051788
  0.8189621372179183  0.8198475654362573  0.8233626417316177
  0.3361914254455067  0.0165054287359153  0.0187173194661410
  0.1084379637308112  0.0974125897358388  0.9844219703596002
  0.2333952222621498  0.2274337208175459  0.9968592086621910
  0.0481763224019307  0.2631547744559773  0.1617364039357064
  0.2602653940971053  0.0684434193782802  0.1931709656058990
  0.4529482199689747  0.1071505949899927  0.0239863145872664
  0.5506573540540736  0.2477345211688733  0.9936882030163560
  0.3809191993240868  0.2609584460868323  0.1722956279642506
  0.6117836278329442  0.0711731631123388  0.1891351872711478
  0.7630025363815206  0.1120913930433194  0.9958976471656270
  0.8898820645249450  0.2309795058351759  0.9897120718610779
  0.7199214827950352  0.2588701381702292  0.1765668048229067
  0.9295492256582608  0.0519358076027461  0.1618346678716824
  0.1147375908657720  0.4254070251183856  0.0247337063891468
  0.2369281432467182  0.5740009747358362  0.0085063026226961
  0.0636827822792100  0.6089560966967776  0.1658185456160422
  0.2633581946160981  0.3970544882359288  0.1736634104167057
  0.4404476631895613  0.4283154716347055  0.9916901239536362
  0.5552502619969536  0.5598087716368935  0.9940630976701621
  0.3909631262670007  0.5953198577242158  0.1648036304342495
  0.5981438012199654  0.3951530293014889  0.1688613213563067
  0.7665760616149070  0.4452702764412916  0.9929031377967206
  0.8969857788660647  0.5595929283367370  0.9793940706619809
  0.7239971070002150  0.6029496226860065  0.1766256921111053
  0.9309908634721964  0.3941230194925727  0.1750986924179468
  0.1223203213833562  0.7790943641850997  0.0081689932667554
  0.0810122590497131  0.9416946491501228  0.1625656057506396
  0.2850424188739763  0.7354377818190320  0.1640204696373832
  0.4425393081161776  0.7669455319883203  0.0192105112164698
  0.5664466422729429  0.9084788190289118  0.0098015880176341
  0.3884814099240723  0.9222508145359420  0.1811786270708100
  0.5974819919485238  0.7291566437995790  0.1606506156991794
  0.7536258830950536  0.7650458329620643  0.9928359939751221
  0.9012406062792185  0.8842143112795294  0.9883384507330484
  0.7291317977940861  0.9429936872484720  0.1614121300677231
  0.9245636657267291  0.7288880811923993  0.1684482950541805
  0.1107374071138851  0.1109034604935411  0.3294387775067191
  0.2200023323151723  0.2353328603557115  0.3305712515203754
  0.0670988804662649  0.2684199913357966  0.4924751228518363
  0.2758670060351167  0.0698311353321819  0.5134567951404603
  0.4501187570402116  0.0890031231570772  0.3302814526403545
  0.5545054672337850  0.2447361984706886  0.3395196768900688
  0.3850198739464269  0.2586530634136179  0.5050453827194434
  0.6163872757748308  0.0737628914674241  0.5062443933527577
  0.7754896260722397  0.1100569936831218  0.3274631155275165
  0.8850112634231060  0.2370196771666798  0.3318232502723318
  0.7302026905354552  0.2677350668584389  0.4887289170581348
  0.9432901217303701  0.0609867466764072  0.4914555930108214
  0.1029616048075014  0.4372203018159471  0.3364611554843797
  0.2305883632179276  0.5738571162244447  0.3387772099764579
  0.0514242050651443  0.5970379053632904  0.4817703012963969
  0.2764885865814871  0.3959133908213679  0.4942743770286824
  0.4326386604158121  0.4284550506761746  0.3297039266579471
  0.5582910247651850  0.5636049120618898  0.3344873820725157
  0.3850203043720539  0.5862910161366824  0.5111293057101088
  0.6038288414165456  0.3997580773141223  0.4929003382500383
  0.7688464173508547  0.4327865699416906  0.3251766114336951
  0.8883606957282998  0.5700334409410384  0.3370050715751450
  0.7213219922930397  0.5956911440393197  0.5073789429807533
  0.9418599919575099  0.3906893041414891  0.5009283142892816
  0.1086408451233709  0.7752998394461442  0.3287047922034174
  0.2376252701320792  0.8948128684535270  0.3250158381714531
  0.0831055255359113  0.9523102866611829  0.4893501547455539
  0.2709583112806676  0.7235935829110203  0.4938100599837256
  0.4530861509964899  0.7574675853798788  0.3271935336603226
  0.5782161941449034  0.9077717488944962  0.3591143194214827
  0.3942828351978194  0.9233973829238639  0.5148592474985528
  0.6011236086026140  0.7332707574026587  0.5014157216967169
  0.7733572143433149  0.7567526407249658  0.3296426243989492
  0.8910900230561969  0.9018379479567556  0.3294448187746304
  0.7546256678650569  0.9458980814006874  0.5024168152982220
  0.9436148969217620  0.7212445180437921  0.4927728610837617
  0.0923473408509279  0.1133933683809319  0.6717999562091537
  0.2136656246795614  0.2546714811338000  0.6671167188957794
  0.0693634153376269  0.2774962625541699  0.8366142724606880
  0.2658141546906409  0.0796920850027593  0.8224492469351194
  0.4459279723859714  0.0868330283752091  0.6646132456269083
  0.5555967986992684  0.2332758426257372  0.6576924328565301
  0.3853000507134235  0.2633694632346167  0.8376657453735767
  0.5952843931733744  0.0665422660900965  0.8393848053189283
  0.7568000412165808  0.1218657805596735  0.6547667122609873
  0.9012354165733134  0.2267855335947766  0.6684325582134056
  0.7448984080535963  0.2750592254202802  0.8131196001727785
  0.9437258253557362  0.0549361661578791  0.8322631098114061
  0.0884574798832779  0.4428502911620602  0.6607165348122026
  0.2132018117265317  0.5610394824640371  0.6771979939713167
  0.0660421567846821  0.6042913446714594  0.8536071072756504
  0.2733226505312368  0.4149871987807391  0.8254512489355494
  0.4504319625719021  0.4176866003358785  0.6607323869452166
  0.5456244915205758  0.5615427685036686  0.6646352783759214
  0.3865926105815446  0.5942619613230864  0.8334824652018754
  0.6020835409358717  0.4031569800210452  0.8307131637833504
  0.7526873564778410  0.4556799251477260  0.6689034305028426
  0.8885376697684786  0.5641405580635529  0.6724757271324028
  0.7292173693408025  0.6127222652669181  0.8274900320387173
  0.9248170748580989  0.3790698425395608  0.8201271453169063
  0.1034769673243992  0.7568017549233560  0.6690589703438571
  0.2396681360218779  0.8886851541457698  0.6795016573534912
  0.0827805726430711  0.9320514962129806  0.8381199940929962
  0.2702998258671977  0.7281716193990458  0.8366544689930506
  0.4146913585908864  0.7796371107215367  0.6686872766406778
  0.5644240732288730  0.8868924272137105  0.6831273514225270
  0.3844007160437756  0.9284656061708433  0.8509387525089072
  0.5954814442500450  0.7280406251901108  0.8343796928668361
  0.7593878461716937  0.7703513736446186  0.6529724171643505
  0.9103777647315467  0.8884664794696452  0.6639939802577230
  0.7293137722617322  0.9310488115074324  0.8410301435680360
  0.9433438982145317  0.7386341360591444  0.8358078266721430
 
  0.11378015E-02  0.15488219E-02  0.48737864E-02
  0.23114994E-03  0.25467107E-02  0.22105221E-02
 -0.11042814E-02  0.18097417E-04  0.36619840E-04
 -0.10656531E-03  0.76439670E-03  0.77966847E-03
 -0.33334618E-03  0.20072911E-03  0.50355987E-03
 -0.27599497E-02 -0.28266511E-02 -0.41928362E-03
 -0.41744022E-02 -0.62487562E-03  0.31079943E-02
 -0.39664606E-02 -0.26731938E-02 -0.37690160E-02
 -0.83259891E-04  0.10816714E-02 -0.17127436E-02
  0.55159980E-03 -0.68862798E-03 -0.68684345E-03
 -0.14662006E-02 -0.46065532E-03  0.20021390E-02
  0.34991529E-03 -0.97178463E-03 -0.37871574E-02
  0.33683278E-02 -0.32875824E-02  0.32981540E-02
  0.44883391E-03 -0.33199839E-02  0.64790045E-03
 -0.27635241E-03 -0.60003815E-03 -0.94775851E-03
  0.11374070E-02  0.42737080E-02  0.14016152E-03
 -0.25223018E-04 -0.19197067E-02 -0.32979844E-02
 -0.82535435E-03  0.36781436E-02  0.41243003E-02
 -0.39784355E-03 -0.31306002E-03  0.52866673E-02
 -0.47800738E-02 -0.38940248E-02 -0.16989454E-02
  0.23871925E-02  0.52000178E-02  0.27137292E-02
 -0.12926573E-02  0.21397204E-02 -0.13492765E-02
  0.35084242E-03  0.53184291E-03 -0.19078041E-02
  0.12835733E-02 -0.50035920E-03 -0.21260649E-02
  0.24809672E-02  0.10811964E-02  0.40055807E-02
 -0.26580121E-03 -0.48941046E-03 -0.13151772E-03
  0.87073801E-03  0.17240697E-02  0.94476216E-03
 -0.17939346E-02 -0.74438747E-03  0.25535912E-02
 -0.13862125E-02 -0.27332694E-02 -0.35299183E-03
 -0.77754601E-03 -0.13099001E-02 -0.89158298E-03
  0.24209216E-02  0.50445039E-03  0.21388523E-02
  0.25667766E-02  0.72319911E-03  0.60858450E-03
  0.12532137E-02  0.46876707E-02 -0.37396375E-02
  0.13343195E-03  0.33909869E-03 -0.14919786E-02
  0.34682636E-02  0.10215441E-02  0.21881422E-03
  0.18091505E-02 -0.23477584E-03 -0.13467953E-02
  0.82541314E-03 -0.35978003E-04  0.88114740E-04
 -0.38941722E-02  0.97264896E-03 -0.11532182E-02
 -0.26949668E-02 -0.24236843E-02 -0.13763138E-02
 -0.33548756E-02  0.26019702E-02  0.29183008E-03
  0.10399698E-02  0.29511770E-02  0.75225726E-03
  0.14792546E-02  0.23374695E-02  0.22389200E-03
 -0.76209389E-03 -0.27252390E-02  0.24696665E-02
  0.34394141E-02 -0.49282785E-03 -0.31411835E-02
 -0.31136322E-02  0.34144639E-02 -0.60026668E-03
  0.30344238E-03 -0.27717153E-02  0.37346778E-04
 -0.64486271E-02 -0.10280647E-02 -0.14472321E-02
  0.36549458E-02  0.16735256E-02  0.25737735E-03
  0.56012302E-02 -0.62300624E-03  0.20848843E-02
 -0.13548144E-02  0.60058862E-03 -0.19289335E-02
  0.64539680E-03 -0.10116818E-02 -0.44417238E-02
 -0.34996905E-02 -0.33708565E-02 -0.13826190E-02
  0.32341949E-02 -0.29752430E-03  0.37766276E-02
  0.70572931E-03  0.32093403E-02  0.28890741E-03
  0.21331138E-02 -0.32402597E-02 -0.43389666E-02
 -0.53695205E-02  0.18969049E-02 -0.11721347E-02
  0.25984464E-02  0.57335585E-02  0.81510784E-02
  0.11635713E-01  0.40902295E-02  0.10037287E-01
 -0.10439325E-01  0.22780904E-02  0.12152182E-02
  0.28317905E-02 -0.64130901E-02 -0.12604382E-01
 -0.70597618E-03  0.22553325E-02  0.32657138E-02
 -0.19569724E-02  0.30519300E-03 -0.20970884E-01
  0.50840950E-02 -0.32020935E-03 -0.72006084E-02
 -0.16953108E-02 -0.56901528E-02  0.13495868E-02
  0.43991266E-02  0.50026752E-02 -0.84299985E-02
 -0.15427739E-02 -0.50200422E-02 -0.48469885E-02
  0.63551696E-02  0.54179844E-03 -0.97796203E-02
  0.90274547E-03  0.71876053E-02 -0.39304992E-02
  0.10948242E-01 -0.18348410E-01  0.11146935E-01
 -0.66855552E-02  0.51386923E-02  0.10989179E-01
 -0.38161869E-02 -0.45947706E-03 -0.52058812E-02
 -0.63691925E-03 -0.11485187E-01  0.94286295E-02
  0.42807648E-02  0.42441134E-03 -0.68803856E-02
  0.25602641E-02  0.13656874E-01  0.62163183E-02
 -0.43145050E-02 -0.29922338E-02 -0.27547391E-02
 -0.15261458E-01 -0.47028086E-02 -0.57434839E-02
 -0.12155026E-02  0.11727545E-01 -0.79345369E-02
 -0.61380880E-02  0.37566782E-02 -0.37128579E-02
 -0.36337224E-02  0.18130764E-02 -0.10156145E-01
 -0.16033675E-01 -0.73461622E-02  0.16419797E-02
 -0.37770627E-02 -0.61147228E-02  0.71618669E-02
 -0.18063871E-02  0.57287095E-03  0.22571741E-03
 -0.59451071E-02 -0.42484003E-02 -0.44077871E-02
  0.59395191E-02  0.33646852E-03  0.36157141E-02
 -0.95730437E-03  0.85985357E-02  0.12782059E-01
  0.89631711E-02  0.26002278E-02 -0.32647613E-02
  0.59979920E-02  0.96844825E-02  0.73694195E-03
  0.17501010E-02 -0.42265983E-02 -0.49179683E-02
  0.61436651E-02 -0.56639432E-02 -0.63122019E-02
 -0.19888909E-02  0.57725714E-02 -0.12484029E-02
  0.16228216E-02  0.14958379E-02 -0.97666804E-02
  0.63466794E-02 -0.11413529E-01  0.10007284E-01
 -0.92296307E-02  0.80560844E-02 -0.11894141E-01
 -0.94108913E-03 -0.49604685E-02 -0.64374058E-02
  0.38577104E-02 -0.70018421E-04 -0.38763373E-02
 -0.73603300E-04  0.21303532E-03  0.13380269E-02
 -0.64566771E-03  0.12831466E-02 -0.13531470E-01
  0.65607717E-02 -0.14551535E-02 -0.22082877E-02
  0.90053463E-02 -0.56499038E-02 -0.71185966E-02
 -0.28942403E-03 -0.92246487E-03 -0.36115465E-02
 -0.64007092E-02  0.64660417E-02 -0.19013946E-02
  0.13767245E-02 -0.16822247E-01 -0.10370915E-01
 -0.60054186E-02  0.59709403E-02  0.24471083E-03
  0.18860215E-03  0.33085376E-02 -0.42065509E-02
  0.14146729E-02  0.63306610E-02  0.28240205E-02
  0.50021176E-02 -0.58860132E-02 -0.10086982E-01
 -0.32815195E-03  0.60364070E-02  0.11260926E-01
  0.39414861E-02  0.33049158E-02 -0.19071396E-02
  0.70283373E-02  0.60517556E-03 -0.37331994E-02
 -0.56856364E-02 -0.50600432E-02 -0.43248824E-02
  0.52696964E-02 -0.11156462E-01  0.74758672E-02
 -0.10514289E-01  0.55044670E-02  0.44424451E-02
  0.62430003E-02  0.34476701E-02  0.26808603E-02
 -0.17871867E-02 -0.43842443E-02 -0.65204958E-02
 -0.14236719E-02  0.75115150E-03 -0.41482145E-02
  0.11755894E-02  0.81906503E-02  0.11145095E-01
 -0.13389861E-01  0.55024404E-03  0.38189082E-02
 -0.25025158E-02  0.13430163E-01  0.97385851E-02
 -0.13053553E-02 -0.63735866E-02  0.35931058E-02
 -0.40009468E-02  0.96640713E-02  0.60190680E-03
  0.43547212E-02 -0.13220544E-01  0.31715754E-02
 -0.34228773E-02 -0.37180483E-02  0.92627924E-03
  0.65100187E-02 -0.13760398E-01  0.15277034E-02
 -0.14777603E-01 -0.12138584E-01  0.45751900E-02
  0.69136305E-02 -0.63876649E-02  0.53166475E-03
 -0.12705709E-02 -0.28718462E-02  0.14384154E-03
 -0.74153733E-02  0.60588980E-02  0.46211738E-02
 -0.69045592E-02  0.12307658E-02  0.29615185E-02
 -0.71004952E-02 -0.69672083E-02 -0.10777375E-02
  0.37663073E-02  0.19954741E-02 -0.10230626E-01
 -0.94653776E-02  0.71719057E-02 -0.31148237E-02
  0.79810152E-02 -0.10355428E-01  0.91828446E-03
  0.76184943E-02 -0.53259916E-02  0.12236051E-02
  0.72778658E-02  0.85697752E-02 -0.62796227E-02
 -0.65726345E-02 -0.10406893E-01 -0.10711852E-01
  0.97380143E-02 -0.14090395E-02  0.12171809E-01
  0.60514607E-03 -0.57422979E-02 -0.23393379E-02
  0.52998412E-02  0.37604288E-02  0.37462367E-02
  0.11507594E-01 -0.92959896E-02  0.26681847E-03
 -0.16294417E-01  0.32258015E-02  0.38513881E-02
  0.84801104E-02  0.26716190E-02  0.13638439E-02
 -0.23296130E-03 -0.10953680E-01  0.96711135E-02
 -0.80869343E-02  0.14857699E-02 -0.27278275E-03
  0.80674306E-02 -0.29829016E-02 -0.10522448E-02
  0.49597800E-02  0.32124387E-02  0.11924144E-01
 -0.46778103E-03  0.81742187E-02  0.81939103E-02
  0.13745419E-01 -0.80434114E-02 -0.69779057E-02
 -0.16889146E-02 -0.78310012E-02 -0.30155933E-02
 -0.84764373E-03 -0.63522140E-02 -0.77653987E-02
  0.14405500E-01 -0.60833891E-02  0.13763935E-01
 -0.32111265E-02 -0.90090730E-04  0.12973166E-02
  0.33555677E-02  0.15709269E-02  0.44420957E-02
  0.47539160E-02  0.49319347E-02  0.18609809E-02
  0.95110848E-02 -0.51295543E-03 -0.90936091E-02
 -0.37860962E-02 -0.26808272E-02 -0.71967485E-03
 -0.44067297E-02 -0.69439780E-02  0.81837594E-02
 -0.52483334E-02  0.17197279E-02  0.56157984E-02
  0.29623795E-02  0.19868044E-02 -0.11350127E-01
 -0.29266505E-02  0.19431451E-02  0.98899217E-02
  0.15946800E-02  0.44585399E-02 -0.54600419E-02
  0.15925744E-02 -0.70027179E-03  0.57408230E-02
 
           1
   1.00000000000000     
  0.64128852E+00 -0.14812880E-03 -0.17144297E-03  0.00000000E+00
  0.37217297E-02  0.99720068E+00  0.24009719E-02
  0.15806307E+00  0.17140847E+00  0.15212913E+00
  0.50727002E+00  0.18015739E+00  0.17075367E+00
  0.66750067E+00  0.93366299E-02  0.49305317E-02
  0.83521302E+00  0.16556505E+00  0.15861393E+00
  0.99291793E+00  0.34633603E+00  0.23602093E-02
  0.17558900E+00  0.51147732E+00  0.17470188E+00
  0.33173496E+00  0.33596540E+00  0.39573196E-02
  0.49296000E+00  0.49358364E+00  0.15860294E+00
  0.67573262E+00  0.33282870E+00  0.99977489E+00
  0.83545915E+00  0.50990965E+00  0.16346452E+00
  0.99379716E+00  0.67367669E+00  0.99947297E+00
  0.17819781E+00  0.83021711E+00  0.17421927E+00
  0.33299828E+00  0.66945273E+00  0.21626167E-03
  0.50723551E+00  0.84291122E+00  0.18121876E+00
  0.65181465E+00  0.66291265E+00  0.99983509E+00
  0.82810762E+00  0.83384644E+00  0.15516001E+00
  0.15515594E-01  0.60931395E-03  0.32729832E+00
  0.16964352E+00  0.17049077E+00  0.50447138E+00
  0.33257793E+00  0.62320177E-02  0.34685168E+00
  0.50061235E+00  0.16141770E+00  0.49424754E+00
  0.68269731E+00  0.60240790E-02  0.34009164E+00
  0.84387699E+00  0.16258029E+00  0.49622603E+00
  0.99244261E+00  0.33030052E+00  0.33010171E+00
  0.16956467E+00  0.49221447E+00  0.49604753E+00
  0.32842676E+00  0.32402514E+00  0.33743526E+00
  0.49136044E+00  0.49175320E+00  0.48840788E+00
  0.66746911E+00  0.33740332E+00  0.32941717E+00
  0.82960180E+00  0.50205129E+00  0.50011045E+00
  0.99553100E+00  0.65675462E+00  0.33215187E+00
  0.17158332E+00  0.83946590E+00  0.49419949E+00
  0.34344603E+00  0.66868582E+00  0.33362976E+00
  0.49832316E+00  0.82013572E+00  0.50566096E+00
  0.65711938E+00  0.66694966E+00  0.33854242E+00
  0.84716817E+00  0.83154977E+00  0.49572271E+00
  0.14352322E-01  0.30539177E-02  0.66401279E+00
  0.15981140E+00  0.17603457E+00  0.83098332E+00
  0.34085500E+00  0.72751129E-02  0.67811312E+00
  0.49918142E+00  0.17025167E+00  0.82875110E+00
  0.67095802E+00  0.99200378E+00  0.66261420E+00
  0.83583754E+00  0.16674235E+00  0.82282843E+00
  0.81594606E-02  0.31712088E+00  0.66493251E+00
  0.16571872E+00  0.49663157E+00  0.84147322E+00
  0.33455083E+00  0.34207155E+00  0.67251353E+00
  0.49259101E+00  0.49165556E+00  0.82276586E+00
  0.66478640E+00  0.33071379E+00  0.66806133E+00
  0.82401602E+00  0.48763126E+00  0.82741997E+00
  0.99922775E+00  0.65572892E+00  0.66557767E+00
  0.16492719E+00  0.82409181E+00  0.82060265E+00
  0.32688820E+00  0.66502837E+00  0.66163885E+00
  0.49476145E+00  0.82555296E+00  0.85045152E+00
  0.64983259E+00  0.66184266E+00  0.66110593E+00
  0.81918560E+00  0.81982684E+00  0.82374827E+00
  0.33624001E+00  0.16727117E-01  0.18746820E-01
  0.10858551E+00  0.97188614E-01  0.98397892E+00
  0.23302415E+00  0.22756506E+00  0.99673952E+00
  0.48355535E-01  0.26355075E+00  0.16256871E+00
  0.26106906E+00  0.68725379E-01  0.19419587E+00
  0.45222687E+00  0.10730854E+00  0.24110400E-01
  0.55085334E+00  0.24729130E+00  0.99240118E+00
  0.38087030E+00  0.26111430E+00  0.17262909E+00
  0.61164841E+00  0.71194353E-01  0.18699386E+00
  0.76335380E+00  0.11206900E+00  0.99516240E+00
  0.88976524E+00  0.23058648E+00  0.98984988E+00
  0.72022514E+00  0.25921553E+00  0.17570602E+00
  0.92944291E+00  0.51589068E-01  0.16133974E+00
  0.11517663E+00  0.42544412E+00  0.23735115E-01
  0.23699013E+00  0.57449750E+00  0.81049618E-02
  0.64440154E-01  0.60768786E+00  0.16695675E+00
  0.26289603E+00  0.39740987E+00  0.17478551E+00
  0.44018404E+00  0.42828393E+00  0.99115855E+00
  0.55520687E+00  0.55901532E+00  0.99502585E+00
  0.39125885E+00  0.59534895E+00  0.16410108E+00
  0.59831995E+00  0.39609641E+00  0.16949607E+00
  0.76627814E+00  0.44506378E+00  0.99262185E+00
  0.89593165E+00  0.55926884E+00  0.97880761E+00
  0.72391250E+00  0.60375992E+00  0.17581550E+00
  0.93056660E+00  0.39438289E+00  0.17471957E+00
  0.12206918E+00  0.77921982E+00  0.71319556E-02
  0.79904925E-01  0.94118798E+00  0.16273327E+00
  0.28478180E+00  0.73501553E+00  0.16475176E+00
  0.44241448E+00  0.76698521E+00  0.19233559E-01
  0.56603614E+00  0.90818563E+00  0.93515116E-02
  0.38889174E+00  0.92227374E+00  0.18154783E+00
  0.59741539E+00  0.72975075E+00  0.16195578E+00
  0.75424499E+00  0.76522500E+00  0.99250263E+00
  0.90165447E+00  0.88488307E+00  0.98841370E+00
  0.72925293E+00  0.94270159E+00  0.16090996E+00
  0.92498842E+00  0.72849644E+00  0.16780376E+00
  0.11059969E+00  0.11130238E+00  0.32931130E+00
  0.22011437E+00  0.23543612E+00  0.32957398E+00
  0.67537969E-01  0.26763112E+00  0.49349696E+00
  0.27522892E+00  0.70388206E-01  0.51224229E+00
  0.45005401E+00  0.88660467E-01  0.32962413E+00
  0.55477199E+00  0.24473115E+00  0.33912387E+00
  0.38501478E+00  0.25866779E+00  0.50518201E+00
  0.61634260E+00  0.73851576E-01  0.50486270E+00
  0.77594297E+00  0.10995611E+00  0.32723763E+00
  0.88563372E+00  0.23662886E+00  0.33109637E+00
  0.73018274E+00  0.26767135E+00  0.48836014E+00
  0.94284757E+00  0.61433813E-01  0.49126144E+00
  0.10305762E+00  0.43605802E+00  0.33540219E+00
  0.23017314E+00  0.57426996E+00  0.33880220E+00
  0.51437058E-01  0.59726647E+00  0.48134077E+00
  0.27658598E+00  0.39635069E+00  0.49456274E+00
  0.43298456E+00  0.42804813E+00  0.32867395E+00
  0.55826803E+00  0.56402197E+00  0.33563723E+00
  0.38529243E+00  0.58651913E+00  0.51093457E+00
  0.60431438E+00  0.39979951E+00  0.49251914E+00
  0.76845388E+00  0.43243729E+00  0.32473500E+00
  0.88872536E+00  0.56926238E+00  0.33776843E+00
  0.72059529E+00  0.59607200E+00  0.50783256E+00
  0.94229112E+00  0.39092716E+00  0.50120206E+00
  0.10851761E+00  0.77499704E+00  0.32803899E+00
  0.23752687E+00  0.89486484E+00  0.32459227E+00
  0.83186305E-01  0.95287610E+00  0.49048817E+00
  0.27003321E+00  0.72363232E+00  0.49420001E+00
  0.45291254E+00  0.75839558E+00  0.32818793E+00
  0.57812635E+00  0.90733148E+00  0.35948121E+00
  0.39400590E+00  0.92406527E+00  0.51492071E+00
  0.60142517E+00  0.73235715E+00  0.50173957E+00
  0.77312094E+00  0.75649595E+00  0.32973721E+00
  0.89154052E+00  0.90088693E+00  0.32960081E+00
  0.75360537E+00  0.94506025E+00  0.50288399E+00
  0.94409289E+00  0.72080284E+00  0.49282715E+00
  0.92259714E-01  0.11319503E+00  0.67181464E+00
  0.21315299E+00  0.25509047E+00  0.66758858E+00
  0.68886330E-01  0.27758166E+00  0.83691667E+00
  0.26532397E+00  0.79211118E-01  0.82233920E+00
  0.44618807E+00  0.86970689E-01  0.66356860E+00
  0.55494247E+00  0.23377184E+00  0.65737438E+00
  0.38585200E+00  0.26265360E+00  0.83775951E+00
  0.59581102E+00  0.66173897E-01  0.83950975E+00
  0.75730239E+00  0.12245746E+00  0.65412550E+00
  0.90078189E+00  0.22606690E+00  0.66733878E+00
  0.74557126E+00  0.27496136E+00  0.81436246E+00
  0.94376794E+00  0.54539412E-01  0.83202424E+00
  0.88823431E-01  0.44310981E+00  0.66109906E+00
  0.21399734E+00  0.56039663E+00  0.67722524E+00
  0.64916242E-01  0.60451508E+00  0.85400037E+00
  0.27390838E+00  0.41517132E+00  0.82559051E+00
  0.45041646E+00  0.41692985E+00  0.66171990E+00
  0.54506571E+00  0.56164585E+00  0.66460742E+00
  0.38715013E+00  0.59405545E+00  0.83337502E+00
  0.60242603E+00  0.40337865E+00  0.83193073E+00
  0.75265460E+00  0.45624469E+00  0.66974011E+00
  0.88948774E+00  0.56358412E+00  0.67176322E+00
  0.72910111E+00  0.61218133E+00  0.82718211E+00
  0.92475885E+00  0.37863103E+00  0.81933423E+00
  0.10447253E+00  0.75638070E+00  0.67046440E+00
  0.23944629E+00  0.88867910E+00  0.67963413E+00
  0.83012316E-01  0.93215985E+00  0.83857357E+00
  0.27062800E+00  0.72851210E+00  0.83684449E+00
  0.41534848E+00  0.77960116E+00  0.66775873E+00
  0.56416264E+00  0.88670742E+00  0.68305387E+00
  0.38409664E+00  0.92798610E+00  0.85177439E+00
  0.59511876E+00  0.72815972E+00  0.83495312E+00
  0.75959240E+00  0.77048848E+00  0.65181346E+00
  0.91017547E+00  0.88860088E+00  0.66500383E+00
  0.72942371E+00  0.93135676E+00  0.84047262E+00
  0.94345396E+00  0.73858567E+00  0.83639402E+00
  0.79432224E-04  0.11020887E-03  0.50241484E-03
  0.14452590E-04  0.17468667E-03  0.21721713E-03
 -0.78053347E-04  0.24112227E-05 -0.28215257E-06
 -0.32691505E-05  0.52656746E-04  0.81481954E-04
 -0.23464257E-04  0.13063355E-04  0.49339999E-04
 -0.19221345E-03 -0.19053825E-03 -0.39581897E-04
 -0.28583119E-03 -0.40355193E-04  0.31806715E-03
 -0.27142297E-03 -0.18351813E-03 -0.38578597E-03
 -0.81344794E-05  0.72533298E-04 -0.17886200E-03
  0.42949951E-04 -0.47106434E-04 -0.69227464E-04
 -0.97815997E-04 -0.30727679E-04  0.20436676E-03
  0.23393960E-04 -0.65528811E-04 -0.38967876E-03
  0.23480548E-03 -0.22603936E-03  0.33777148E-03
  0.25920584E-04 -0.22796072E-03  0.68971504E-04
 -0.21705731E-04 -0.43791886E-04 -0.93743790E-04
  0.73874143E-04  0.29732183E-03  0.14912341E-04
 -0.33514185E-06 -0.13234488E-03 -0.34000945E-03
 -0.50788700E-04  0.25196552E-03  0.42390318E-03
 -0.28586520E-04 -0.22486854E-04  0.54331837E-03
 -0.33416796E-03 -0.26444895E-03 -0.17292022E-03
  0.16433224E-03  0.35817633E-03  0.27468919E-03
 -0.86746993E-04  0.14841606E-03 -0.13836692E-03
  0.29253082E-04  0.34903313E-04 -0.19473616E-03
  0.83948829E-04 -0.35059436E-04 -0.22257520E-03
  0.17451129E-03  0.71179758E-04  0.40342496E-03
 -0.18639090E-04 -0.35214423E-04 -0.11323667E-04
  0.55996219E-04  0.11834836E-03  0.92441479E-04
 -0.12385333E-03 -0.50506711E-04  0.25407144E-03
 -0.95628948E-04 -0.18442893E-03 -0.36347443E-04
 -0.55462273E-04 -0.98166359E-04 -0.80964149E-04
  0.16497399E-03  0.39608717E-04  0.21290120E-03
  0.17914026E-03  0.54148062E-04  0.62684404E-04
  0.89059904E-04  0.31250610E-03 -0.38679027E-03
  0.45038570E-05  0.25114910E-04 -0.14619826E-03
  0.24243170E-03  0.72318204E-04  0.22956898E-04
  0.13148764E-03 -0.10177702E-04 -0.13971351E-03
  0.50975686E-04 -0.10447306E-05  0.10143158E-04
 -0.26446546E-03  0.76106836E-04 -0.11931838E-03
 -0.18593266E-03 -0.16702621E-03 -0.14249886E-03
 -0.22988902E-03  0.17761986E-03  0.24896208E-04
  0.72525599E-04  0.20845732E-03  0.73198671E-04
  0.10322256E-03  0.15298378E-03  0.27010515E-04
 -0.46859566E-04 -0.19082714E-03  0.24864723E-03
  0.23956453E-03 -0.27872719E-04 -0.31586138E-03
 -0.21560469E-03  0.23136063E-03 -0.66753088E-04
  0.22168143E-04 -0.19286978E-03  0.15525098E-04
 -0.45040285E-03 -0.77512764E-04 -0.14516749E-03
  0.25099027E-03  0.11549721E-03  0.23695495E-04
  0.38648816E-03 -0.40446543E-04  0.21013469E-03
 -0.93133872E-04  0.44397739E-04 -0.20438498E-03
  0.45474022E-04 -0.76071430E-04 -0.44869768E-03
 -0.24693981E-03 -0.22953416E-03 -0.14982933E-03
  0.21853336E-03 -0.22572341E-04  0.38314515E-03
  0.48406574E-04  0.22163279E-03  0.32225297E-04
  0.16147209E-03 -0.21949241E-03 -0.48122171E-03
 -0.37243726E-03  0.11717102E-03 -0.12314531E-03
  0.17266771E-03  0.40008103E-03  0.84550943E-03
  0.80515822E-03  0.27732436E-03  0.10416488E-02
 -0.70802425E-03  0.17506984E-03  0.18931637E-03
  0.16642533E-03 -0.45452291E-03 -0.12869218E-02
 -0.81506094E-04  0.16518346E-03  0.35796558E-03
 -0.11863930E-03  0.19865193E-05 -0.20917229E-02
  0.34554677E-03 -0.17044753E-04 -0.71319655E-03
 -0.13588440E-03 -0.41336533E-03  0.11504418E-03
  0.29097497E-03  0.34112323E-03 -0.79048417E-03
 -0.12083297E-03 -0.35384123E-03 -0.50222712E-03
  0.45303793E-03  0.18208141E-04 -0.94061496E-03
  0.10152596E-03  0.53734462E-03 -0.38971251E-03
  0.75655297E-03 -0.12616216E-02  0.11585018E-02
 -0.48304657E-03  0.35843795E-03  0.11365289E-02
 -0.23564298E-03 -0.14017590E-04 -0.54842437E-03
 -0.45491211E-04 -0.79406756E-03  0.95935278E-03
  0.28287200E-03  0.34622824E-04 -0.71489835E-03
  0.17132148E-03  0.93774459E-03  0.67203252E-03
 -0.27086892E-03 -0.17187058E-03 -0.35269112E-03
 -0.10638579E-02 -0.33163995E-03 -0.64072272E-03
 -0.89214349E-04  0.82296492E-03 -0.77070222E-03
 -0.39755731E-03  0.22095933E-03 -0.33392294E-03
 -0.23303925E-03  0.13746268E-03 -0.10114813E-02
 -0.11069845E-02 -0.50261043E-03  0.17612062E-03
 -0.23926994E-03 -0.44359066E-03  0.69887112E-03