CONTCAR-pbo-1                           
   1.00000000000000     
    14.4909347397168737   -0.0156583122015411    0.0002412395617177
    -0.0158509906795610   14.6894196209003720   -0.0241949312921553
     0.0003053169065900   -0.0161575565410610    9.8033725576003263
   Sn   O    Pb
    54   109     1
Direct
  0.0007701639226820  0.0026936591027375 -0.0004899852377473
  0.1682920454517897  0.1689068947719931  0.1654373260670507
  0.3320448678038089  0.0010940796232743 -0.0001358842562171
  0.4984976395245402  0.1681476965294404  0.1657004614904370
  0.6692605699348239 -0.0001328407721043 -0.0016357548520913
  0.8296646771267827  0.1715641374570213  0.1655208656895945
 -0.0003400453002122  0.3342143113566657  0.0011014817448126
  0.1693238694993200  0.4978419240943939  0.1664824157068622
  0.3335791482704215  0.3327808256581899  0.0008247037389209
  0.4974792649417276  0.5005957717661517  0.1655607849227257
  0.6632129589557670  0.3351203573496283  0.0011862930821164
  0.8306772343952084  0.4979014150059819  0.1676152877006237
 -0.0029990937156051  0.6675619796139547  0.0012364664506627
  0.1632962262886932  0.8369594422526482  0.1662277389982829
  0.3283506996389719  0.6706385735480325  0.0006259857528824
  0.4964840940374521  0.8359691201249725  0.1648631488715777
  0.6665956097887404  0.6653244083475708 -0.0018263127912698
  0.8342455132596017  0.8350912393405415  0.1607180921597061
 -0.0014983554137578  0.0155764461016223  0.3256132750026814
  0.1698638414558365  0.1708400223811333  0.5002791302209372
  0.3343943962749348  0.0043720960966909  0.3326369527540255
  0.4975583330119542  0.1710642855220625  0.5001510031845502
  0.6615299616214420  0.0084208134159729  0.3302841568725360
  0.8302800273992366  0.1705279779999423  0.4999633518901948
  0.0019702635881517  0.3322412924871959  0.3321458991422853
  0.1705273326284502  0.4958950239335335  0.5009617409594789
  0.3340578037542596  0.3332781301392650  0.3326366759973192
  0.4961985821891154  0.4971771617556396  0.5015288568681701
  0.6632034342153058  0.3346261179580949  0.3341309752452966
  0.8368654587532508  0.4879232515780907  0.5034074009350806
  0.0034587199368574  0.6505694778067402  0.3302256413173427
  0.1868838379062220  0.8348107131206796  0.5004365655791229
  0.3350619817437999  0.6640963003129412  0.3320322062084372
  0.4989352492374641  0.8356135249043436  0.5002423044392629
  0.6523112675960523  0.6681415193831673  0.3129402939538928
  0.9782514764324145  0.8376120849787555  0.4981832130190824
 -0.0014566233284114  0.0149964161916824  0.6736957382683748
  0.1681162609009554  0.1686193684797634  0.8352392294409909
  0.3346534284110974  0.0041107039127002  0.6677477373615699
  0.4985368039335362  0.1681059746539885  0.8350393678623835
  0.6612981583863682  0.0085832651702120  0.6665195482957054
  0.8299779493904980  0.1715040048438544  0.8345610278597974
  0.0022763887891949  0.3315851844771450  0.6694719930006221
  0.1691172575785219  0.4977800129493802  0.8353364753152890
  0.3336427460359399  0.3329682322227985  0.6688188018924989
  0.4960751499536276  0.4992407497721298  0.8372029430058227
  0.6638615257587318  0.3331385373729951  0.6688775657694062
  0.8310687602958536  0.4962072491504637  0.8362993653294606
  0.0036265782688917  0.6518157924780366  0.6720000897937456
  0.1629302574592100  0.8365118906447776  0.8338752676443026
  0.3352456685400477  0.6639481299761765  0.6694707663633773
  0.4973728893653012  0.8354617257587467  0.8342586427403342
  0.6548521106859915  0.6625348795501784  0.6819728916547837
  0.8337359410438517  0.8320525950610356  0.8320735687949278
  0.1016125673667270  0.1050345946679057  0.0001946090614774
  0.2332267281987477  0.2307962226279308  0.0004703368576820
  0.0662175275521905  0.2696875005424326  0.1657825528810846
  0.2664276542157611  0.0640851027928178  0.1667859238021147
  0.4325912013601257  0.1043326946565197  0.0000179644183759
  0.5626873762903882  0.2324722748008936  0.0007397844529960
  0.3979197576480663  0.2698251497235417  0.1667297907755381
  0.5987081166602038  0.0650867410993708  0.1621656238750027
  0.7659097371701655  0.1066783875594114 -0.0008868001342754
  0.8965651451438879  0.2334267963661098  0.0003283620504880
  0.7286224875896484  0.2723099732275025  0.1675969096543488
  0.9316874445135985  0.0680261995408379  0.1610187165362721
  0.1026928981737832  0.4355044690991686  0.0011249644839521
  0.2323814273032779  0.5636620612500929  0.0010816020547878
  0.0701013622487828  0.6035213569759230  0.1623030484492233
  0.2684534990115688  0.3959114343613109  0.1672794688087252
  0.4321094391259362  0.4355737321511157  0.0017366629051682
  0.5619604509551749  0.5618694447755146  0.0003601700809439
  0.3962261406094711  0.6045002119782771  0.1639088645323960
  0.5995548248213846  0.3992876328905233  0.1682829011716197
  0.7698939412496443  0.4315449619125757  0.0021612726446729
  0.8968218597936134  0.5637501857358617  0.0013558202423353
  0.7251266238421978  0.5967137861771584  0.1598804136131637
  0.9345388824346980  0.3960649055390189  0.1677560134066386
  0.0969473637427083  0.7730706628733673  0.0007858219251901
  0.2302028318334899  0.8976964003872064  0.0000367121808773
  0.0667809755490561  0.9430549191589885  0.1674163374783524
  0.2614348230085297  0.7309227145222442  0.1725731756071446
  0.4243436736068059  0.7777586999109313 -0.0008889356230958
  0.5661492164536314  0.8972138430404142 -0.0001895076310256
  0.3972883831987887  0.9388858778769569  0.1671850110124799
  0.5834698993290072  0.7229041843894655  0.1516046205387548
  0.7700217607730481  0.7685800970086891 -0.0035608171767674
  0.9022032876989630  0.8959231201164563 -0.0029883969360744
  0.7380309658844747  0.9457353635270735  0.1666997844523402
  0.9354609441362722  0.7275302977658737  0.1745298539038440
  0.1031341147037841  0.1077511726834727  0.3337836982273847
  0.2337913292366608  0.2309709781431547  0.3326198170632155
  0.0678955628795026  0.2704410826146877  0.5003597507293416
  0.2661942680640743  0.0636641804220314  0.5004014582631747
  0.4329771958836290  0.1062400447402596  0.3328059071972558
  0.5625993990129231  0.2327782200403158  0.3322871618059146
  0.3977572522758153  0.2713275122957708  0.5004838613149691
  0.5932401550397040  0.0698088138165500  0.4990128696418529
  0.7658342196698761  0.1089141741512467  0.3317419848256572
  0.8996924012055895  0.2301756265264847  0.3331886549548407
  0.7294187358388036  0.2720135739770246  0.5000239213641471
  0.9340885121420612  0.0677095980377601  0.4999417393141813
  0.1021229947636562  0.4363343635762766  0.3329917199013538
  0.2322960960922371  0.5629437775339422  0.3339272334576510
  0.0709758503262655  0.5978887661606866  0.5015059975286827
  0.2691682771832424  0.3950445429926155  0.5006955676012039
  0.4328611424910311  0.4369974905148495  0.3324416026661307
  0.5603138347595493  0.5635710510125429  0.3362441624615655
  0.3975179888295631  0.6013865881364392  0.5002428296862647
  0.5988424043781942  0.3976281044074719  0.5024991054166953
  0.7660674566724233  0.4360164881110078  0.3357336901076255
  0.9052104660066936  0.5499389111168023  0.3346105952559048
  0.7209137760247252  0.5749941661306114  0.5401504446792582
  0.9376758455899000  0.3914915237851287  0.5015049366983457
  0.0882752100565589  0.7792389902397164  0.3525153936906956
  0.2331411656556634  0.8985542360120582  0.3302969152862218
  0.0684256913195154  0.9434718329849934  0.4998704859660268
  0.2707472411872410  0.7265340247519491  0.5007165570948419
  0.4353085636044288  0.7691408449198065  0.3345595904213280
  0.5646130868140345  0.8978826452179188  0.3318684240992002
  0.3944081810396275  0.9355925415854052  0.4998196476279349
  0.6094255077036214  0.7355885206486992  0.5013105293893599
  0.7417616038032845  0.7748603918249504  0.2788774641794431
  0.9127448237850725  0.8973737393674485  0.3323693676902365
  0.7247487249505297  0.9576798282242306  0.4985161027964397
  0.9348858819624333  0.7098177824095601  0.5006418988321665
  0.1029343483025067  0.1076922949220054  0.6662449510626891
  0.2335107473217353  0.2309319784421049  0.6685348374817668
  0.0660715713293418  0.2693194230792650  0.8356914865869837
  0.2665078040187907  0.0641236058701913  0.8335803337257394
  0.4332025346919155  0.1061035720579666  0.6673494501805648
  0.5629525730223298  0.2319152168997237  0.6687825983617141
  0.3979836378701022  0.2698367750381873  0.8344223519584766
  0.5994491160741243  0.0649479824622660  0.8362873509930093
  0.7659756836656467  0.1085490019764280  0.6677989395364489
  0.8996226163286702  0.2300396262051380  0.6676458147238774
  0.7274947931383934  0.2703006469554037  0.8356428791854917
  0.9316946464857870  0.0678211345312963  0.8383339311123197
  0.1021494911059672  0.4360761905079278  0.6683948584488122
  0.2325730864694791  0.5626426268228797  0.6680313315990347
  0.0694062343958063  0.6025671174380748  0.8392673763763999
  0.2683160231918627  0.3958525728777703  0.8348580798275470
  0.4319028919494829  0.4361024066509640  0.6692676834251341
  0.5543840327744463  0.5649854063646795  0.6688402821399206
  0.3955512553470829  0.6043401823379793  0.8380895958144227
  0.5994679199321763  0.3987554425719806  0.8339275195393582
  0.7724264687521490  0.4264865004671568  0.6713927132679456
  0.8992786654470186  0.5564984715979403  0.6684657210522892
  0.7231371190604642  0.5918839318392123  0.8386926149477130
  0.9367843793631350  0.3973327548045862  0.8345391762234952
  0.0888525800282063  0.7794574829176276  0.6482275459615170
  0.2334215081033899  0.8985829551893333  0.6705986873943183
  0.0669974140576359  0.9430266392112813  0.8317754814645411
  0.2608015413063444  0.7304972775069990  0.8287165816661139
  0.4345820705353517  0.7695641307176713  0.6658337792666401
  0.5649588046677054  0.8980011847182795  0.6672478125634542
  0.3980302559094235  0.9390222365450868  0.8326686529418850
  0.5898756066843334  0.7261083492847976  0.8422116096962541
  0.7583156565254694  0.7545574003693956  0.7039809029752413
  0.9123633525560007  0.8965820753621174  0.6648514793181387
  0.7352490735747744  0.9397701845808751  0.8271513599630332
  0.9387249864588690  0.7289190545815488  0.8280976125316952
  0.7603591845505189  0.6399782025000814  0.4401862982790281
  0.7739838379331428  0.8144258859374158  0.4942668155917054
 
  0.00000000E+00  0.00000000E+00  0.00000000E+00
  0.00000000E+00  0.00000000E+00  0.00000000E+00
  0.00000000E+00  0.00000000E+00  0.00000000E+00
  0.00000000E+00  0.00000000E+00  0.00000000E+00
  0.00000000E+00  0.00000000E+00  0.00000000E+00
  0.00000000E+00  0.00000000E+00  0.00000000E+00
  0.00000000E+00  0.00000000E+00  0.00000000E+00
  0.00000000E+00  0.00000000E+00  0.00000000E+00
  0.00000000E+00  0.00000000E+00  0.00000000E+00
  0.00000000E+00  0.00000000E+00  0.00000000E+00
  0.00000000E+00  0.00000000E+00  0.00000000E+00
  0.00000000E+00  0.00000000E+00  0.00000000E+00
  0.00000000E+00  0.00000000E+00  0.00000000E+00
  0.00000000E+00  0.00000000E+00  0.00000000E+00
  0.00000000E+00  0.00000000E+00  0.00000000E+00
  0.00000000E+00  0.00000000E+00  0.00000000E+00
  0.00000000E+00  0.00000000E+00  0.00000000E+00
  0.00000000E+00  0.00000000E+00  0.00000000E+00
  0.00000000E+00  0.00000000E+00  0.00000000E+00
  0.00000000E+00  0.00000000E+00  0.00000000E+00
  0.00000000E+00  0.00000000E+00  0.00000000E+00
  0.00000000E+00  0.00000000E+00  0.00000000E+00
  0.00000000E+00  0.00000000E+00  0.00000000E+00
  0.00000000E+00  0.00000000E+00  0.00000000E+00
  0.00000000E+00  0.00000000E+00  0.00000000E+00
  0.00000000E+00  0.00000000E+00  0.00000000E+00
  0.00000000E+00  0.00000000E+00  0.00000000E+00
  0.00000000E+00  0.00000000E+00  0.00000000E+00
  0.00000000E+00  0.00000000E+00  0.00000000E+00
  0.00000000E+00  0.00000000E+00  0.00000000E+00
  0.00000000E+00  0.00000000E+00  0.00000000E+00
  0.00000000E+00  0.00000000E+00  0.00000000E+00
  0.00000000E+00  0.00000000E+00  0.00000000E+00
  0.00000000E+00  0.00000000E+00  0.00000000E+00
  0.00000000E+00  0.00000000E+00  0.00000000E+00
  0.00000000E+00  0.00000000E+00  0.00000000E+00
  0.00000000E+00  0.00000000E+00  0.00000000E+00
  0.00000000E+00  0.00000000E+00  0.00000000E+00
  0.00000000E+00  0.00000000E+00  0.00000000E+00
  0.00000000E+00  0.00000000E+00  0.00000000E+00
  0.00000000E+00  0.00000000E+00  0.00000000E+00
  0.00000000E+00  0.00000000E+00  0.00000000E+00
  0.00000000E+00  0.00000000E+00  0.00000000E+00
  0.00000000E+00  0.00000000E+00  0.00000000E+00
  0.00000000E+00  0.00000000E+00  0.00000000E+00
  0.00000000E+00  0.00000000E+00  0.00000000E+00
  0.00000000E+00  0.00000000E+00  0.00000000E+00
  0.00000000E+00  0.00000000E+00  0.00000000E+00
  0.00000000E+00  0.00000000E+00  0.00000000E+00
  0.00000000E+00  0.00000000E+00  0.00000000E+00
  0.00000000E+00  0.00000000E+00  0.00000000E+00
  0.00000000E+00  0.00000000E+00  0.00000000E+00
  0.00000000E+00  0.00000000E+00  0.00000000E+00
  0.00000000E+00  0.00000000E+00  0.00000000E+00
  0.00000000E+00  0.00000000E+00  0.00000000E+00
  0.00000000E+00  0.00000000E+00  0.00000000E+00
  0.00000000E+00  0.00000000E+00  0.00000000E+00
  0.00000000E+00  0.00000000E+00  0.00000000E+00
  0.00000000E+00  0.00000000E+00  0.00000000E+00
  0.00000000E+00  0.00000000E+00  0.00000000E+00
  0.00000000E+00  0.00000000E+00  0.00000000E+00
  0.00000000E+00  0.00000000E+00  0.00000000E+00
  0.00000000E+00  0.00000000E+00  0.00000000E+00
  0.00000000E+00  0.00000000E+00  0.00000000E+00
  0.00000000E+00  0.00000000E+00  0.00000000E+00
  0.00000000E+00  0.00000000E+00  0.00000000E+00
  0.00000000E+00  0.00000000E+00  0.00000000E+00
  0.00000000E+00  0.00000000E+00  0.00000000E+00
  0.00000000E+00  0.00000000E+00  0.00000000E+00
  0.00000000E+00  0.00000000E+00  0.00000000E+00
  0.00000000E+00  0.00000000E+00  0.00000000E+00
  0.00000000E+00  0.00000000E+00  0.00000000E+00
  0.00000000E+00  0.00000000E+00  0.00000000E+00
  0.00000000E+00  0.00000000E+00  0.00000000E+00
  0.00000000E+00  0.00000000E+00  0.00000000E+00
  0.00000000E+00  0.00000000E+00  0.00000000E+00
  0.00000000E+00  0.00000000E+00  0.00000000E+00
  0.00000000E+00  0.00000000E+00  0.00000000E+00
  0.00000000E+00  0.00000000E+00  0.00000000E+00
  0.00000000E+00  0.00000000E+00  0.00000000E+00
  0.00000000E+00  0.00000000E+00  0.00000000E+00
  0.00000000E+00  0.00000000E+00  0.00000000E+00
  0.00000000E+00  0.00000000E+00  0.00000000E+00
  0.00000000E+00  0.00000000E+00  0.00000000E+00
  0.00000000E+00  0.00000000E+00  0.00000000E+00
  0.00000000E+00  0.00000000E+00  0.00000000E+00
  0.00000000E+00  0.00000000E+00  0.00000000E+00
  0.00000000E+00  0.00000000E+00  0.00000000E+00
  0.00000000E+00  0.00000000E+00  0.00000000E+00
  0.00000000E+00  0.00000000E+00  0.00000000E+00
  0.00000000E+00  0.00000000E+00  0.00000000E+00
  0.00000000E+00  0.00000000E+00  0.00000000E+00
  0.00000000E+00  0.00000000E+00  0.00000000E+00
  0.00000000E+00  0.00000000E+00  0.00000000E+00
  0.00000000E+00  0.00000000E+00  0.00000000E+00
  0.00000000E+00  0.00000000E+00  0.00000000E+00
  0.00000000E+00  0.00000000E+00  0.00000000E+00
  0.00000000E+00  0.00000000E+00  0.00000000E+00
  0.00000000E+00  0.00000000E+00  0.00000000E+00
  0.00000000E+00  0.00000000E+00  0.00000000E+00
  0.00000000E+00  0.00000000E+00  0.00000000E+00
  0.00000000E+00  0.00000000E+00  0.00000000E+00
  0.00000000E+00  0.00000000E+00  0.00000000E+00
  0.00000000E+00  0.00000000E+00  0.00000000E+00
  0.00000000E+00  0.00000000E+00  0.00000000E+00
  0.00000000E+00  0.00000000E+00  0.00000000E+00
  0.00000000E+00  0.00000000E+00  0.00000000E+00
  0.00000000E+00  0.00000000E+00  0.00000000E+00
  0.00000000E+00  0.00000000E+00  0.00000000E+00
  0.00000000E+00  0.00000000E+00  0.00000000E+00
  0.00000000E+00  0.00000000E+00  0.00000000E+00
  0.00000000E+00  0.00000000E+00  0.00000000E+00
  0.00000000E+00  0.00000000E+00  0.00000000E+00
  0.00000000E+00  0.00000000E+00  0.00000000E+00
  0.00000000E+00  0.00000000E+00  0.00000000E+00
  0.00000000E+00  0.00000000E+00  0.00000000E+00
  0.00000000E+00  0.00000000E+00  0.00000000E+00
  0.00000000E+00  0.00000000E+00  0.00000000E+00
  0.00000000E+00  0.00000000E+00  0.00000000E+00
  0.00000000E+00  0.00000000E+00  0.00000000E+00
  0.00000000E+00  0.00000000E+00  0.00000000E+00
  0.00000000E+00  0.00000000E+00  0.00000000E+00
  0.00000000E+00  0.00000000E+00  0.00000000E+00
  0.00000000E+00  0.00000000E+00  0.00000000E+00
  0.00000000E+00  0.00000000E+00  0.00000000E+00
  0.00000000E+00  0.00000000E+00  0.00000000E+00
  0.00000000E+00  0.00000000E+00  0.00000000E+00
  0.00000000E+00  0.00000000E+00  0.00000000E+00
  0.00000000E+00  0.00000000E+00  0.00000000E+00
  0.00000000E+00  0.00000000E+00  0.00000000E+00
  0.00000000E+00  0.00000000E+00  0.00000000E+00
  0.00000000E+00  0.00000000E+00  0.00000000E+00
  0.00000000E+00  0.00000000E+00  0.00000000E+00
  0.00000000E+00  0.00000000E+00  0.00000000E+00
  0.00000000E+00  0.00000000E+00  0.00000000E+00
  0.00000000E+00  0.00000000E+00  0.00000000E+00
  0.00000000E+00  0.00000000E+00  0.00000000E+00
  0.00000000E+00  0.00000000E+00  0.00000000E+00
  0.00000000E+00  0.00000000E+00  0.00000000E+00
  0.00000000E+00  0.00000000E+00  0.00000000E+00
  0.00000000E+00  0.00000000E+00  0.00000000E+00
  0.00000000E+00  0.00000000E+00  0.00000000E+00
  0.00000000E+00  0.00000000E+00  0.00000000E+00
  0.00000000E+00  0.00000000E+00  0.00000000E+00
  0.00000000E+00  0.00000000E+00  0.00000000E+00
  0.00000000E+00  0.00000000E+00  0.00000000E+00
  0.00000000E+00  0.00000000E+00  0.00000000E+00
  0.00000000E+00  0.00000000E+00  0.00000000E+00
  0.00000000E+00  0.00000000E+00  0.00000000E+00
  0.00000000E+00  0.00000000E+00  0.00000000E+00
  0.00000000E+00  0.00000000E+00  0.00000000E+00
  0.00000000E+00  0.00000000E+00  0.00000000E+00
  0.00000000E+00  0.00000000E+00  0.00000000E+00
  0.00000000E+00  0.00000000E+00  0.00000000E+00
  0.00000000E+00  0.00000000E+00  0.00000000E+00
  0.00000000E+00  0.00000000E+00  0.00000000E+00
  0.00000000E+00  0.00000000E+00  0.00000000E+00
  0.00000000E+00  0.00000000E+00  0.00000000E+00
  0.00000000E+00  0.00000000E+00  0.00000000E+00
  0.00000000E+00  0.00000000E+00  0.00000000E+00
  0.00000000E+00  0.00000000E+00  0.00000000E+00
  0.00000000E+00  0.00000000E+00  0.00000000E+00
  0.00000000E+00  0.00000000E+00  0.00000000E+00
  0.00000000E+00  0.00000000E+00  0.00000000E+00
