CONTCAR-pbo-1                           
   1.00000000000000     
    14.4909347397168737   -0.0156583122015411    0.0002412395617177
    -0.0158509906795610   14.6894196209003720   -0.0241949312921553
     0.0003053169065900   -0.0161575565410610    9.8033725576003263
   Sn   O    Pb
    54   109     1
Direct
  0.9999733164637675  0.9989914503479053  0.9921726156892805
  0.1644770384456439  0.1620770801020076  0.1709415415909550
  0.3419817944923587  0.9982049445459616  0.0085298309614089
  0.4964470280370696  0.1735292140765990  0.1780430848213845
  0.6645283910888357  0.9936681304210782  0.0093055070396671
  0.8229929035955649  0.1655407374790422  0.1575444890139027
  0.9923670524959345  0.3283562479682374  0.0078616599878177
  0.1774569613297435  0.5070321289155342  0.1635343435075774
  0.3382764044127097  0.3388375132082984  0.0120028488017980
  0.4982856195267052  0.4930178061622263  0.1672979281105551
  0.6650015506762602  0.3212545879190907  0.9959419604715084
  0.8299414378680909  0.4822696606291821  0.1489797514388596
  0.0026079112672803  0.6643416100090966  0.9962591155150629
  0.1747053513738018  0.8370637696576858  0.1706225565817539
  0.3331594228931284  0.6628443424564642  0.9946268323604863
  0.5029535194046209  0.8450098891671212  0.1726109648126562
  0.6586819316815946  0.6727277058690529  0.0085699654790766
  0.8323411877484748  0.8285907431730922  0.1638889173409227
  0.9991194288341697  0.0091201294447973  0.3047660857440881
  0.1697362229233439  0.1679673389005249  0.4951971850244271
  0.3359516837604772  0.0027848970296207  0.3467040449177481
  0.4926790075322278  0.1807976370503928  0.4978206655561013
  0.6587955881160787  0.0076575632805892  0.3437463351436428
  0.8385212473142073  0.1596618889584751  0.4974104898168512
  0.0023677438226904  0.3372068562074382  0.3413116660572038
  0.1607665651185073  0.5057700206784583  0.4843491838490231
  0.3243028590570533  0.3366897070816465  0.3357907318139348
  0.4948837007228487  0.4960008740251796  0.5073959107144732
  0.6643420473496763  0.3397174344399147  0.3462864762578003
  0.8291154976235336  0.5088775662876849  0.4993538998511362
  0.9979869825181455  0.6585165097746780  0.3195002507857403
  0.2036876264418852  0.8216092472086084  0.5026604747128043
  0.3427595260311129  0.6548696241949065  0.3280839941192208
  0.4982179743163671  0.8276523270081600  0.5021305769790231
  0.6652586683217279  0.6608350473486505  0.3272956865942496
  0.9922371111176750  0.8482184051827047  0.4984944594521458
  0.0100192074222936  0.0255891879982197  0.6763309549960993
  0.1777449393027670  0.1817135276276242  0.8489661981581972
  0.3337675662890009  0.0118451091339931  0.6756969309960627
  0.4981495983114675  0.1727134930590783  0.8202990020719662
  0.6407598006908232  0.0058345197373958  0.6789927338443557
  0.8247294306462516  0.1605493701152356  0.8264981852691178
  0.9978253598176086  0.3279196950357036  0.6634757945743587
  0.1882603880130144  0.5075698612093875  0.8154214715110767
  0.3390691912934499  0.3398860532670718  0.6728168546065516
  0.5067210654939528  0.4930082049520278  0.8419367075658539
  0.6739015780468078  0.3344018250639834  0.6713960401306704
  0.8164555731591659  0.4995355837873766  0.8259099811903067
  0.9993737641970427  0.6596512140685477  0.6778995224010165
  0.1750439102624188  0.8417982129233327  0.8333339319864309
  0.3372493940661787  0.6659608878804190  0.6630255431088800
  0.4871417217452846  0.8259463484948344  0.8349635326209254
  0.6575673060604960  0.6612517801052206  0.6744284860465583
  0.8338967143408158  0.8304489871120232  0.8479573369332309
  0.1044723352921038  0.1152973968040504  0.9837985043069510
  0.2443076021598765  0.2356435024314510  0.0068688476477276
  0.0632011373558865  0.2670812056334347  0.1864453432993761
  0.2562897964972164  0.0511351749247825  0.1536294176626193
  0.4352626827418332  0.1108983763331305  0.9951857844228444
  0.5650678881153044  0.2257425994260032  0.9910834521238120
  0.4049325462428264  0.2808005806281474  0.1642202027106595
  0.5957961434692859  0.0621380791851370  0.1689584549185071
  0.7578637914470855  0.1127454409849619  0.0039388573841717
  0.9023060875286008  0.2257518953015908  0.0088084393431462
  0.7170475642144252  0.2620719495649552  0.1867698161237253
  0.9266724812740131  0.0599602856069771  0.1619860495850554
  0.0757880441712025  0.4340876447164911  0.0367981468470307
  0.2354965339083121  0.5654745156853892  0.9882435807678540
  0.0631076955543641  0.5900874605179512  0.1570091641118706
  0.1648527383816121  0.4090375354793346  0.9812013692571834
  0.4220035010308225  0.4466538877643625  0.9955206941841754
  0.5658055278794584  0.5603032113613482  0.0036387172124612
  0.3896609113830689  0.5920224580319723  0.1609110454022914
  0.6022700957506332  0.3779220069090943  0.1716532190557014
  0.7697669421571789  0.4216352390438849  0.9899868239630407
  0.8931410044245502  0.5529761697928144  0.9898483398940728
  0.7213482678649308  0.5870196720445748  0.1652205896606730
  0.9182610491582683  0.3825598898456891  0.1854788560518165
  0.1025046089983766  0.7814612373835216  0.0012690685882994
  0.2449799802150772  0.8932708654918071  0.0093191659632455
  0.0712258679251631  0.9421543807409052  0.1384611002052980
  0.2821346405895868  0.7344662675634736  0.1564829268847554
  0.4319952677400939  0.7783246175452406  0.0163461374304240
  0.5663633913659091  0.8971527386785670  0.0030127212080068
  0.4173317016431549  0.9571902939052110  0.1692537115140285
  0.5877539373660510  0.7321604368114734  0.1827881914757586
  0.7681410217269929  0.7739424432349448  0.0092671002528651
  0.9031787981021038  0.8943858723672998  0.0121288484734730
  0.7412583488442422  0.9396678441061965  0.1729000465422982
  0.9385750588202334  0.7217304733484727  0.1657561534669444
  0.1087544973202337  0.0981840168770705  0.3312620202246263
  0.2315980771326139  0.2356101752924553  0.3517861505463150
  0.0702552528651789  0.2690718573615653  0.5089749375461566
  0.2606941545777299  0.0522261180412716  0.5111110115139147
  0.4260554313125635  0.1104176039856878  0.3450317634137368
  0.5739384607080980  0.2390546612455142  0.3365367326631900
  0.4036168281843530  0.2803671228800335  0.5000443961945178
  0.5868817227083243  0.0784791745344303  0.5107048113400765
  0.7637172639917694  0.0985202797065968  0.3457414698012914
  0.9101376928114270  0.2171594449954524  0.3306574537698828
  0.7487839086462978  0.2947562559225296  0.5076846341273987
  0.9385330615292935  0.0609760291054334  0.4938240926380610
  0.1021113106825704  0.4349117094605877  0.3267929157335854
  0.2422588462837190  0.5649578554329515  0.3391834333477656
  0.0491211571947136  0.5962337437262109  0.4953717429129710
  0.2669388315232012  0.3956976670627556  0.4936736004003865
  0.2633095576903431  0.4027166288910205  0.1753218557995674
  0.5670559475951020  0.5539236032310522  0.3451337566805214
  0.4119374329473765  0.6133554058542880  0.5016423109776474
  0.4343933250170778  0.4341908213971335  0.3465758376970095
  0.7605293809580348  0.4427860078032949  0.3294948154390031
  0.8884033648952046  0.5612109674911625  0.3134243276809514
  0.5898362825369591  0.3865638044169379  0.5157384716504835
  0.9342833075976645  0.4024870682595473  0.5037502510366456
  0.0938109216981196  0.7790228263129856  0.3415828435480947
  0.2558161745123556  0.8845596391680725  0.3384158717185437
  0.0751322309689600  0.9614780899574816  0.4951152403972497
  0.2644025013527529  0.6975983559498939  0.4945060990045091
  0.4322856428623972  0.7626756667885778  0.3367861801481585
  0.5578275384457551  0.9015115637870070  0.3536340335508662
  0.3904896244555646  0.9333062913812298  0.5155933489438494
  0.6045593572214125  0.7269161340801599  0.5068921311660356
  0.7764797631087237  0.7391536796753441  0.2931049268744170
  0.9065917545578731  0.8947948506083484  0.3295185426411877
  0.7132745783307365  0.9576366131742832  0.5034310847044792
  0.9307343398902144  0.7198565306307763  0.5078404749359918
  0.1142510502436978  0.1088540860060789  0.6727612043035698
  0.2367299534372609  0.2407239835041228  0.6768710082082643
  0.0634959616672890  0.2723278128818192  0.8417902459131537
  0.2781582060554551  0.0789375573550782  0.8394549519480980
  0.4318045765915041  0.1157415150057986  0.6505136387920926
  0.5707491901489274  0.2349628621416369  0.6559907668913730
  0.4097207306785952  0.2825794968739481  0.8330740225171567
  0.5862630502811018  0.0638899879678773  0.8486527455591008
  0.7675100305359885  0.1064000264727672  0.6649259452851798
  0.9099942312885507  0.2192450639258256  0.6591922899755331
  0.7417772507622442  0.2813912486316763  0.8339984979858276
  0.9414696839705654  0.0820677332514616  0.8442284195905357
  0.1043840230767335  0.4527786821864260  0.6595862377356303
  0.2378763499399875  0.5700243667298887  0.6696369414293641
  0.0777942510014555  0.5956120391344375  0.8432029026653427
  0.2837400753690212  0.4070900653729364  0.8151460631377480
  0.4324489632342534  0.4429948559286759  0.6701847287820225
  0.5625722062877822  0.5539494474467244  0.6709512658405131
  0.4131292768181087  0.6220256684300917  0.8341950918987050
  0.5996254802425781  0.3889780275149076  0.8261001229550174
  0.7487920279380726  0.4528217676305832  0.6537029962324051
  0.8876929670047086  0.5714206272124881  0.6773816996549462
  0.7158837988164063  0.6024848380611489  0.8537033752320367
  0.9223459452448569  0.3907252612677133  0.8365118074797894
  0.0963140204392848  0.7818080086697654  0.6462444553412510
  0.2523366937546470  0.8922188577377428  0.6714646662516777
  0.0722380479586897  0.9575294285175160  0.8335041960277620
  0.2477346958555809  0.7147736824976654  0.8107660809689531
  0.4207155317421132  0.7725598973045157  0.6523635558004544
  0.5710548639989573  0.8952374323874376  0.6780670998223315
  0.4059650582052357  0.9490719203268853  0.8171768676780634
  0.5840551758881810  0.7183984074787245  0.8598332196472971
  0.7626236387608483  0.7672255737160490  0.7125364189554323
  0.9126670314153116  0.9078015706622830  0.6591281916598044
  0.7392256071507910  0.9437075924252206  0.8354839680790089
  0.9478204844384793  0.7373335988300945  0.8247674290493675
  0.7272116903961854  0.6027830951973248  0.5043419081474098
  0.7740288759373070  0.8255184788769001  0.4969500403170079
 
  0.21372634E-02  0.25824747E-02 -0.11044669E-02
  0.58763463E-03 -0.23224788E-02  0.18538372E-02
 -0.27398424E-04  0.21197368E-02 -0.15961608E-02
  0.59058853E-03  0.27603391E-04  0.12530619E-02
 -0.49221133E-03 -0.25914573E-02 -0.39495609E-02
  0.76695579E-03  0.34808782E-02  0.21603042E-02
 -0.13847665E-02 -0.91776484E-03 -0.16369947E-02
  0.72667246E-03  0.17642872E-02 -0.24334314E-03
  0.35827630E-02 -0.70139109E-04 -0.31239190E-03
  0.17130165E-02 -0.79962816E-03  0.22347732E-02
 -0.43068654E-02 -0.37741810E-02 -0.30411345E-02
  0.46388534E-03  0.95806492E-03 -0.58845256E-02
  0.11890124E-03 -0.31587648E-02 -0.72098008E-03
  0.17284731E-02 -0.21507880E-02  0.75990590E-03
 -0.28952596E-02  0.29993880E-02  0.16151350E-02
 -0.13649304E-02  0.28824218E-02  0.13257105E-02
 -0.12600767E-02  0.30924192E-02 -0.71575103E-03
  0.14182618E-02  0.35079915E-02  0.13443674E-02
 -0.20750270E-02 -0.18654453E-02 -0.19784340E-02
 -0.33188621E-02 -0.40886194E-02 -0.48502364E-03
  0.22019014E-02 -0.23001188E-03 -0.15530833E-02
 -0.37159511E-02 -0.11592961E-02  0.20187345E-02
 -0.17792620E-02 -0.33076531E-03  0.21247525E-02
  0.32600893E-02  0.15542382E-02  0.14686944E-02
 -0.29381187E-02  0.79549893E-03 -0.15267252E-02
  0.88819318E-03  0.19461765E-02  0.36362730E-02
  0.49286399E-02 -0.24189535E-02 -0.19433509E-03
 -0.22446660E-02  0.63404578E-03 -0.16515813E-03
 -0.95717817E-03 -0.32526968E-02  0.24917748E-02
 -0.25453176E-02 -0.41341577E-02 -0.41544740E-02
  0.15174470E-03  0.35491505E-03  0.23068702E-02
  0.52387841E-03  0.27835188E-02  0.90879332E-03
 -0.10970295E-02  0.65974660E-03 -0.12258315E-02
  0.89628950E-03 -0.15128139E-02  0.10412568E-02
 -0.37907057E-03 -0.41625805E-02  0.20340253E-02
  0.57167696E-02 -0.41958297E-02 -0.50920074E-03
  0.53653227E-02 -0.15092685E-02 -0.58976000E-02
 -0.46080810E-03  0.55386698E-02  0.12919448E-03
 -0.29786317E-02 -0.72308995E-02 -0.14748712E-02
 -0.29696894E-02  0.10184411E-02  0.35868422E-02
  0.60854213E-02 -0.32731955E-02  0.22794341E-02
 -0.13415451E-02  0.33543581E-02  0.45520860E-02
 -0.38947530E-02  0.47431963E-03 -0.22567022E-03
 -0.28649088E-03 -0.44093147E-02  0.16615943E-02
 -0.16064983E-02 -0.18665343E-02  0.61972742E-03
  0.43265509E-03 -0.14565068E-02 -0.29247162E-03
  0.10516577E-02  0.32117174E-02  0.19951796E-02
 -0.18135596E-02 -0.20410509E-02 -0.86299581E-03
  0.14720973E-02  0.11748988E-02  0.45597651E-02
  0.49973845E-02  0.40025720E-03 -0.14806525E-02
 -0.29051660E-02  0.34785684E-02 -0.14712950E-02
 -0.17512644E-04  0.33391754E-02  0.19730987E-02
  0.84607056E-03 -0.10167577E-02  0.19958189E-02
 -0.26898847E-02 -0.13806542E-02  0.72534071E-03
  0.48433333E-02 -0.24935466E-02  0.32746393E-03
  0.33021825E-02 -0.42344253E-02  0.55595918E-02
  0.82431517E-02  0.55655388E-02  0.73950320E-03
  0.86755777E-02  0.38401589E-03 -0.59971962E-04
  0.68991080E-02 -0.56836317E-02 -0.29806643E-02
 -0.86506044E-02  0.89764184E-02  0.18931261E-02
  0.76007402E-02  0.35526992E-02  0.23571979E-03
 -0.56454090E-03  0.29789579E-02 -0.16247356E-01
 -0.60019903E-02  0.51656911E-02 -0.48377652E-02
 -0.10220955E-01  0.13978613E-02  0.32934490E-02
  0.78836853E-02  0.22695476E-02  0.23378213E-02
  0.64162263E-02 -0.33259607E-02 -0.45646581E-02
  0.10940982E-01 -0.11180876E-02  0.72647706E-02
 -0.72247140E-02  0.11031100E-01 -0.11922388E-02
  0.72924799E-02 -0.13582441E-01  0.13329885E-02
 -0.63469510E-02  0.11131932E-01  0.14416184E-03
 -0.26939370E-02  0.82664207E-02  0.77007117E-03
 -0.50549244E-02 -0.85277101E-02  0.94645073E-03
 -0.47455279E-02  0.32774214E-02  0.56615193E-02
 -0.73471306E-02 -0.17430320E-04 -0.10985579E-01
 -0.87929566E-02  0.53202241E-02 -0.13374180E-02
 -0.44889988E-02 -0.53293104E-02 -0.22105993E-02
 -0.29300242E-02  0.92204478E-02 -0.53918359E-02
  0.91422574E-02  0.48402956E-02 -0.79404228E-02
  0.10501278E-01 -0.84980601E-02 -0.13572486E-01
 -0.14765915E-01 -0.11867468E-01 -0.42991840E-02
  0.33378027E-02  0.87834634E-02 -0.69348400E-02
  0.25913570E-02 -0.12425047E-02  0.15426721E-02
  0.58331128E-02 -0.47661556E-02  0.16402565E-02
 -0.25179345E-02 -0.14767451E-02  0.96308295E-02
 -0.34410717E-02  0.71165440E-02 -0.13195849E-01
  0.64740150E-02 -0.83715558E-02  0.13957396E-01
  0.88327582E-02 -0.80612884E-03 -0.93803220E-02
 -0.41479007E-02  0.46550807E-02  0.45404005E-02
 -0.90141081E-05  0.10381897E-01  0.64396977E-02
  0.43852913E-02 -0.81725092E-02  0.29675536E-02
  0.90760018E-02 -0.65431310E-02  0.49923866E-02
 -0.24187322E-02  0.11582129E-01 -0.38062816E-02
  0.89003168E-02 -0.74962248E-02 -0.66358643E-02
  0.54095979E-02 -0.10613494E-01  0.11621510E-02
  0.14666678E-01  0.90703966E-02 -0.64495923E-02
 -0.50322990E-02  0.14412515E-02  0.72551382E-02
 -0.85502764E-03  0.38231491E-02 -0.12947871E-01
  0.36880891E-02 -0.82887008E-02 -0.72624411E-02
  0.10949256E-01 -0.45161112E-02 -0.42738421E-02
  0.57394044E-03 -0.24255605E-02 -0.10704380E-01
 -0.96376631E-03 -0.39547996E-03 -0.37069107E-02
  0.57771611E-02 -0.15006923E-02  0.33805134E-02
  0.15551556E-01  0.47549172E-02  0.75865612E-02
 -0.93957916E-02  0.71408356E-02  0.84266850E-02
 -0.45071376E-03  0.40196916E-02  0.32282987E-02
  0.95379798E-02 -0.10245099E-01 -0.25307215E-02
  0.36609556E-02 -0.89217690E-02 -0.74761889E-02
 -0.91782819E-02  0.82604406E-02  0.12047632E-03
 -0.59656865E-02  0.29791749E-02 -0.84155174E-02
 -0.26753786E-02 -0.35130922E-02  0.57878859E-02
  0.48298145E-02  0.56399950E-02 -0.16496975E-01
  0.95124484E-02 -0.28417206E-02 -0.82661631E-02
 -0.20866413E-02  0.30081573E-03  0.29286159E-02
 -0.36604621E-02  0.10123712E-01  0.22042412E-03
  0.31065576E-02 -0.36398995E-02  0.10471778E-01
  0.29399843E-02 -0.49602797E-02 -0.40502566E-02
  0.14682349E-01  0.15901483E-01 -0.67406669E-02
 -0.56160781E-02 -0.19506285E-02 -0.51352958E-02
 -0.13751077E-01  0.26859383E-02 -0.52708659E-02
 -0.92963064E-02  0.13297906E-01  0.66505233E-02
 -0.39710778E-02  0.26706036E-02 -0.72433088E-03
 -0.99399496E-02 -0.75177368E-02  0.36278991E-02
 -0.94681078E-02 -0.11514731E-02 -0.10735538E-01
 -0.85341473E-02  0.11144601E-01  0.45675076E-02
  0.45387970E-02  0.69417361E-02 -0.10531067E-01
  0.35757902E-02  0.79465239E-02 -0.11047528E-01
  0.87431588E-02 -0.96570180E-03  0.31822244E-02
 -0.12439879E-01  0.36914692E-03 -0.23786196E-02
  0.20444054E-02 -0.47972235E-02 -0.84141242E-02
  0.86483888E-02  0.36995679E-03 -0.74591390E-02
  0.89724962E-02  0.53749586E-03 -0.30075379E-02
 -0.59578587E-02 -0.95531791E-02 -0.13788307E-01
  0.47252589E-02 -0.97513033E-02  0.19948637E-02
  0.12505146E-02  0.50300377E-02  0.43744224E-03
 -0.48445456E-02  0.39081332E-02  0.79994247E-02
  0.98785148E-02  0.75857870E-02  0.62928069E-02
  0.56872552E-02  0.76559310E-02 -0.56535608E-02
  0.14175669E-02  0.32381037E-02 -0.24002684E-02
 -0.24753836E-02  0.70989002E-02  0.25234753E-02
 -0.21771063E-02  0.32682229E-02  0.31273022E-03
 -0.42877187E-02  0.25261276E-02  0.13938296E-01
  0.33516990E-02 -0.17567344E-02  0.50422469E-02
 -0.40223815E-02  0.83371902E-02 -0.13323630E-02
 -0.20515296E-01 -0.39749164E-02 -0.15670757E-02
 -0.32489284E-03 -0.21556883E-02 -0.10479317E-01
 -0.87986632E-02 -0.66908149E-02 -0.76187403E-03
  0.13826269E-02  0.12363029E-01  0.45971666E-02
 -0.55143549E-03 -0.44245978E-02 -0.28008710E-02
  0.95966873E-02 -0.39271365E-02 -0.20125351E-02
 -0.64166933E-02  0.74691620E-02  0.10217421E-01
 -0.29595176E-02 -0.12219120E-02  0.57216857E-03
  0.70923961E-03 -0.99576653E-02 -0.27143761E-02
 -0.54352634E-02  0.44230570E-02 -0.13005224E-01
 -0.24857023E-02  0.18073996E-02  0.34658482E-02
 -0.63378483E-02  0.80562559E-02  0.16910517E-02
  0.37410671E-02 -0.35786755E-02  0.83891121E-02
  0.10737452E-01  0.88354334E-02  0.73491867E-02
  0.10732903E-03  0.10652136E-01  0.10156023E-02
 -0.84232585E-02 -0.23808849E-02 -0.31691418E-02
  0.56843823E-02 -0.24699679E-02  0.97941462E-03
 -0.40462689E-02  0.40382578E-02  0.10214943E-01
 -0.63344755E-02 -0.30318316E-02  0.16319587E-01
 -0.72243197E-02  0.22529179E-02  0.98722195E-02
 -0.10402117E-02 -0.72225119E-03 -0.57460364E-03
 
           1
   1.00000000000000     
  0.43227776E+00 -0.37622102E-03 -0.17425882E-03  0.00000000E+00
  0.12100086E-03  0.99916729E+00  0.99206038E+00
  0.16451741E+00  0.16191923E+00  0.17113025E+00
  0.34198006E+00  0.99834907E+00  0.83673692E-02
  0.49648778E+00  0.17353128E+00  0.17817091E+00
  0.66449424E+00  0.99349123E+00  0.89021935E-02
  0.82304609E+00  0.16577800E+00  0.15776544E+00
  0.99227143E+00  0.32829348E+00  0.76945246E-02
  0.17750724E+00  0.50715226E+00  0.16350982E+00
  0.33852364E+00  0.33883297E+00  0.11970966E-01
  0.49840377E+00  0.49296375E+00  0.16752575E+00
  0.66470406E+00  0.32099700E+00  0.99563112E+00
  0.82997353E+00  0.48233426E+00  0.14837965E+00
  0.26158827E-02  0.66412650E+00  0.99618504E+00
  0.17482447E+00  0.83691756E+00  0.17069971E+00
  0.33295984E+00  0.66304850E+00  0.99479209E+00
  0.50285954E+00  0.84520616E+00  0.17274668E+00
  0.65859521E+00  0.67293805E+00  0.84974761E-02
  0.83243932E+00  0.82882981E+00  0.16402664E+00
  0.99897610E+00  0.89927619E-02  0.30456396E+00
  0.16950689E+00  0.16768870E+00  0.49514703E+00
  0.33610362E+00  0.27692263E-02  0.34654558E+00
  0.49242248E+00  0.18071867E+00  0.49802640E+00
  0.65867277E+00  0.76351535E-02  0.34396302E+00
  0.83874633E+00  0.15976810E+00  0.49756056E+00
  0.21650503E-02  0.33726062E+00  0.34115607E+00
  0.16082800E+00  0.50590298E+00  0.48472043E+00
  0.32464280E+00  0.33652537E+00  0.33577049E+00
  0.49472885E+00  0.49604385E+00  0.50737917E+00
  0.66427575E+00  0.33949621E+00  0.34654011E+00
  0.82893955E+00  0.50859547E+00  0.49892943E+00
  0.99799748E+00  0.65854094E+00  0.31973562E+00
  0.20372398E+00  0.82179888E+00  0.50275364E+00
  0.34268387E+00  0.65491432E+00  0.32795906E+00
  0.49827971E+00  0.82754952E+00  0.50223654E+00
  0.66523220E+00  0.66055187E+00  0.32750247E+00
  0.99263131E+00  0.84793313E+00  0.49844180E+00
  0.10389361E-01  0.25486175E-01  0.67572910E+00
  0.17771355E+00  0.18209056E+00  0.84898031E+00
  0.33356148E+00  0.11352470E-01  0.67554527E+00
  0.49794473E+00  0.17278301E+00  0.82066506E+00
  0.64117950E+00  0.56123955E-02  0.67922469E+00
  0.82463709E+00  0.16077814E+00  0.82696309E+00
  0.99755662E+00  0.32795167E+00  0.66345286E+00
  0.18824029E+00  0.50726986E+00  0.81559022E+00
  0.33895819E+00  0.33975894E+00  0.67287976E+00
  0.50675081E+00  0.49290905E+00  0.84190663E+00
  0.67397439E+00  0.33462077E+00  0.67160010E+00
  0.81633027E+00  0.49939641E+00  0.82582161E+00
  0.99947543E+00  0.65973182E+00  0.67836484E+00
  0.17538881E+00  0.84182566E+00  0.83318296E+00
  0.33704917E+00  0.66619732E+00  0.66287605E+00
  0.48714076E+00  0.82617389E+00  0.83516536E+00
  0.65762561E+00  0.66118285E+00  0.67463190E+00
  0.83371098E+00  0.83035488E+00  0.84803110E+00
  0.10480638E+00  0.11512804E+00  0.98383148E+00
  0.24453516E+00  0.23535610E+00  0.74352429E-02
  0.63770400E-01  0.26746078E+00  0.18652170E+00
  0.25688852E+00  0.51161949E-01  0.15362335E+00
  0.43573836E+00  0.11051163E+00  0.99488077E+00
  0.56447159E+00  0.22635326E+00  0.99127808E+00
  0.40545733E+00  0.28104302E+00  0.16424483E+00
  0.59575744E+00  0.62339012E-01  0.16730163E+00
  0.75745000E+00  0.11309612E+00  0.34462534E-02
  0.90160085E+00  0.22584667E+00  0.91446412E-02
  0.71759177E+00  0.26222729E+00  0.18700866E+00
  0.92711502E+00  0.59733826E-01  0.16151986E+00
  0.76542970E-01  0.43401315E+00  0.37538993E-01
  0.23499879E+00  0.56622481E+00  0.98812383E+00
  0.63609926E-01  0.58916350E+00  0.15714284E+00
  0.16441557E+00  0.40979491E+00  0.98121795E+00
  0.42181821E+00  0.44721652E+00  0.99560064E+00
  0.56545606E+00  0.55972241E+00  0.37338358E-02
  0.38933366E+00  0.59224586E+00  0.16148911E+00
  0.60176310E+00  0.37791905E+00  0.17053263E+00
  0.76916055E+00  0.42199662E+00  0.98985131E+00
  0.89283083E+00  0.55261279E+00  0.98962196E+00
  0.72114677E+00  0.58764655E+00  0.16467214E+00
  0.91889232E+00  0.38288918E+00  0.18466968E+00
  0.10322868E+00  0.78088197E+00  0.99988315E+00
  0.24396013E+00  0.89246140E+00  0.88786520E-02
  0.71456874E-01  0.94275180E+00  0.13775518E+00
  0.28231337E+00  0.73438205E+00  0.15664008E+00
  0.43239745E+00  0.77800077E+00  0.16512644E-01
  0.56618950E+00  0.89705310E+00  0.39948792E-02
  0.41709479E+00  0.95767303E+00  0.16790886E+00
  0.58820005E+00  0.73159257E+00  0.18421051E+00
  0.76875052E+00  0.77388716E+00  0.83101024E-02
  0.90289289E+00  0.89470298E+00  0.12592785E-01
  0.74125849E+00  0.94037533E+00  0.17355868E+00
  0.93887707E+00  0.72117477E+00  0.16605748E+00
  0.10938032E+00  0.97739811E-01  0.33177016E+00
  0.23143203E+00  0.23639804E+00  0.35139984E+00
  0.70868908E-01  0.26856145E+00  0.50829677E+00
  0.26106667E+00  0.51504117E-01  0.51122777E+00
  0.42706825E+00  0.11103544E+00  0.34437537E+00
  0.57359128E+00  0.23915322E+00  0.33727705E+00
  0.40355813E+00  0.28062587E+00  0.49872428E+00
  0.58713563E+00  0.77914365E-01  0.50996260E+00
  0.76447253E+00  0.98213165E-01  0.34530474E+00
  0.91017714E+00  0.21699316E+00  0.32956513E+00
  0.74871738E+00  0.29472885E+00  0.50730644E+00
  0.93893162E+00  0.60874672E-01  0.49416866E+00
  0.10318484E+00  0.43523740E+00  0.32756757E+00
  0.24161097E+00  0.56544423E+00  0.34004422E+00
  0.49090347E-01  0.59650772E+00  0.49570172E+00
  0.26759628E+00  0.39500063E+00  0.49341372E+00
  0.26356155E+00  0.40210870E+00  0.17455774E+00
  0.56642318E+00  0.55448528E+00  0.34514745E+00
  0.41152599E+00  0.61355683E+00  0.50078439E+00
  0.43420843E+00  0.43395212E+00  0.34716565E+00
  0.76086313E+00  0.44316846E+00  0.32781297E+00
  0.88905961E+00  0.56101729E+00  0.31258064E+00
  0.58969230E+00  0.38658446E+00  0.51603726E+00
  0.93403146E+00  0.40317601E+00  0.50377444E+00
  0.94025009E-01  0.77877644E+00  0.34265041E+00
  0.25601870E+00  0.88422172E+00  0.33800188E+00
  0.76146639E-01  0.96256093E+00  0.49443030E+00
  0.26401481E+00  0.69746457E+00  0.49398195E+00
  0.43133691E+00  0.76285691E+00  0.33624899E+00
  0.55718699E+00  0.90241690E+00  0.35431468E+00
  0.39021579E+00  0.93348772E+00  0.51551992E+00
  0.60387285E+00  0.72640403E+00  0.50726095E+00
  0.77582632E+00  0.73907339E+00  0.29200966E+00
  0.90600364E+00  0.89555342E+00  0.32998634E+00
  0.71358833E+00  0.95810833E+00  0.50235801E+00
  0.93098171E+00  0.72039653E+00  0.50671489E+00
  0.11485433E+00  0.10878934E+00  0.67308563E+00
  0.23587153E+00  0.24074793E+00  0.67662846E+00
  0.63636703E-01  0.27200044E+00  0.84093115E+00
  0.27875506E+00  0.78962542E-01  0.83869412E+00
  0.43242380E+00  0.11577843E+00  0.65020693E+00
  0.57033736E+00  0.23431053E+00  0.65458268E+00
  0.41004608E+00  0.28191623E+00  0.83327587E+00
  0.58634972E+00  0.64232556E-01  0.84869821E+00
  0.76717599E+00  0.10666662E+00  0.66574260E+00
  0.91067649E+00  0.21976291E+00  0.65983545E+00
  0.74217030E+00  0.28191222E+00  0.83342308E+00
  0.94156775E+00  0.82288007E-01  0.84398412E+00
  0.10421372E+00  0.45326205E+00  0.65984484E+00
  0.23772635E+00  0.57024673E+00  0.66966939E+00
  0.77498521E-01  0.59578526E+00  0.84462512E+00
  0.28397123E+00  0.40697129E+00  0.81566010E+00
  0.43217201E+00  0.44356198E+00  0.67005023E+00
  0.56115618E+00  0.55367716E+00  0.67079078E+00
  0.41310672E+00  0.62187772E+00  0.83312578E+00
  0.59901780E+00  0.38852181E+00  0.82602130E+00
  0.74888835E+00  0.45366402E+00  0.65417401E+00
  0.88765459E+00  0.57111906E+00  0.67709525E+00
  0.71654577E+00  0.60221797E+00  0.85349741E+00
  0.92190367E+00  0.39123441E+00  0.83755531E+00
  0.96109696E-01  0.78172467E+00  0.64630262E+00
  0.25238490E+00  0.89154072E+00  0.67118611E+00
  0.71863323E-01  0.95782868E+00  0.83217834E+00
  0.24756329E+00  0.71489693E+00  0.81111993E+00
  0.42027876E+00  0.77310806E+00  0.65253742E+00
  0.57131275E+00  0.89499503E+00  0.67892223E+00
  0.40670668E+00  0.94967502E+00  0.81792800E+00
  0.58406337E+00  0.71912369E+00  0.85993861E+00
  0.76204219E+00  0.76706252E+00  0.71221276E+00
  0.91305912E+00  0.90763395E+00  0.65922767E+00
  0.73894666E+00  0.94398335E+00  0.83652664E+00
  0.94738309E+00  0.73712857E+00  0.82643162E+00
  0.72671330E+00  0.60293704E+00  0.50534932E+00
  0.77395704E+00  0.82546917E+00  0.49689131E+00
  0.14978281E-03  0.17062827E-03 -0.11192704E-03
  0.39603616E-04 -0.16137522E-03  0.19646254E-03
 -0.21209525E-05  0.13865050E-03 -0.15278152E-03
  0.37332622E-04  0.37910867E-05  0.13667400E-03
 -0.36760327E-04 -0.17944279E-03 -0.40036375E-03
  0.49678670E-04  0.23278377E-03  0.20518230E-03
 -0.93179825E-04 -0.60036710E-04 -0.16575665E-03
  0.52793017E-04  0.12118800E-03 -0.23897310E-04
  0.25108631E-03 -0.41377450E-05 -0.21080856E-04
  0.11439792E-03 -0.54072958E-04  0.22242305E-03
 -0.29679808E-03 -0.25953324E-03 -0.31931720E-03
  0.34643289E-04  0.57398500E-04 -0.60981909E-03
  0.73653362E-05 -0.21367818E-03 -0.73563185E-04
  0.11993857E-03 -0.14452962E-03  0.81208262E-04
 -0.20111339E-03  0.20012841E-03  0.16706099E-03
 -0.92130503E-04  0.19942356E-03  0.13310051E-03
 -0.89583363E-04  0.21351904E-03 -0.82700641E-04
  0.95570783E-04  0.23754135E-03  0.12929159E-03
 -0.14452942E-03 -0.12727842E-03 -0.21412197E-03
 -0.22826393E-03 -0.27789047E-03 -0.64932892E-04
  0.15081843E-03 -0.15451672E-04 -0.15521514E-03
 -0.26304904E-03 -0.79731593E-04  0.20747211E-03
 -0.11939854E-03 -0.26330785E-04  0.22223508E-03
  0.22533690E-03  0.10230031E-03  0.15247612E-03
 -0.19956449E-03  0.56848636E-04 -0.15659423E-03
  0.59969923E-04  0.13688321E-03  0.36070302E-03
  0.33443113E-03 -0.16563467E-03 -0.21570723E-04
 -0.15809899E-03  0.42425836E-04 -0.14643215E-04
 -0.70264961E-04 -0.22333791E-03  0.25079058E-03
 -0.17809933E-03 -0.27903289E-03 -0.41631503E-03
  0.13225314E-04  0.28694371E-04  0.22933542E-03
  0.37607847E-04  0.18974971E-03  0.90269808E-04
 -0.79233517E-04  0.39582180E-04 -0.12425349E-03
  0.63083329E-04 -0.10441418E-03  0.10538378E-03
 -0.25817616E-04 -0.27787246E-03  0.20572137E-03
  0.39782394E-03 -0.28316877E-03 -0.56954697E-04
  0.37573973E-03 -0.10145622E-03 -0.59648423E-03
 -0.30519082E-04  0.37672903E-03  0.26595274E-04
 -0.20636746E-03 -0.49397357E-03 -0.14918768E-03
 -0.20373156E-03  0.68613166E-04  0.36079953E-03
  0.41179297E-03 -0.22729394E-03  0.23595950E-03
 -0.96421700E-04  0.22374486E-03  0.45961670E-03
 -0.26923519E-03  0.27969488E-04 -0.31692761E-04
 -0.13045847E-04 -0.29240177E-03  0.16072393E-03
 -0.11070616E-03 -0.12288635E-03  0.74377241E-04
  0.31309240E-04 -0.10178065E-03 -0.24747793E-04
  0.75636089E-04  0.21915722E-03  0.21159590E-03
 -0.12882605E-03 -0.13845886E-03 -0.92333778E-04
  0.99518040E-04  0.84676927E-04  0.47051431E-03
  0.34689785E-03  0.29093893E-04 -0.15357018E-03
 -0.20132781E-03  0.24100489E-03 -0.15411038E-03
 -0.37596660E-05  0.22504204E-03  0.20012908E-03
  0.56015303E-04 -0.67730225E-04  0.19730092E-03
 -0.18765959E-03 -0.99048573E-04  0.78271627E-04
  0.35330099E-03 -0.14827366E-03 -0.49751568E-04
  0.22824967E-03 -0.28640418E-03  0.52007060E-03
  0.55277547E-03  0.38870005E-03  0.11829919E-03
  0.58755614E-03  0.18464322E-04 -0.73083341E-04
  0.48423893E-03 -0.38281339E-03 -0.33635923E-03
 -0.59824904E-03  0.60594936E-03  0.17426398E-03
  0.52576575E-03  0.24799389E-03 -0.27279454E-04
 -0.40467262E-04  0.19956703E-03 -0.16748912E-02
 -0.39287934E-03  0.37807833E-03 -0.43722378E-03
 -0.67579855E-03  0.11034485E-03  0.35706470E-03
  0.50479629E-03  0.17251160E-03  0.29540022E-03
  0.45384949E-03 -0.23924448E-03 -0.40515859E-03
  0.76648053E-03 -0.97977460E-04  0.72044122E-03
 -0.49918210E-03  0.74192354E-03 -0.16757677E-03
  0.49372582E-03 -0.94878954E-03  0.11446510E-03
 -0.43373787E-03  0.75111534E-03  0.85559107E-04
 -0.20335623E-03  0.55802541E-03  0.58695723E-04